Bi60 
1.0
3.0923565116999998e+00 0.0000000000000000e+00 0.0000000000000000e+00 
0.0000000000000000e+00 5.3561185932999997e+00 0.0000000000000000e+00 
0.0000000000000000e+00 0.0000000000000000e+00 8.3222057044500005e+01 
Bi 
60 
Cartesian
   0.0000000000    0.0000000000    5.8037398142
   1.5461782558    2.6780592966    5.8037398142
   1.5461782558    0.8926882176    7.8605146986
   0.0000000000    1.7853710791    9.7641942869
   0.0000000000    3.5707475142    7.8605146986
   1.5461782558    4.4634303757    9.7641942869
   0.0000000000    0.0000000000   11.6613242992
   1.5461782558    0.8926882176   13.7319723006
   1.5461782558    2.6780592966   11.6613242992
   0.0000000000    3.5707475142   13.7319723006
   0.0000000000    1.7853710791   18.5371306523
   1.5461782558    4.4634303757   18.5371306523
   0.0000000000    0.0000000000   20.6070296551
   1.5461782558    2.6780592966   20.6070296551
   1.5461782558    0.8926882176   22.5001650087
   0.0000000000    1.7853710791   24.3933835844
   0.0000000000    3.5707475142   22.5001650087
   1.5461782558    4.4634303757   24.3933835844
   0.0000000000    0.0000000000   26.4632825872
   1.5461782558    0.8926882176   31.2656113890
   1.5461782558    2.6780592966   26.4632825872
   0.0000000000    3.5707475142   31.2656113890
   0.0000000000    1.7853710791   33.3354271697
   1.5461782558    4.4634303757   33.3354271697
   0.0000000000    0.0000000000   35.2286457455
   1.5461782558    2.6780592966   35.2286457455
   1.5461782558    0.8926882176   37.1219475432
   0.0000000000    1.7853710791   39.1920962122
   0.0000000000    3.5707475142   37.1219475432
   1.5461782558    4.4634303757   39.1920962122
   1.5461782558    0.0000000000   44.0299608323
   0.0000000000    0.8926882176   46.1001095013
   0.0000000000    2.6780592966   44.0299608323
   1.5461782558    3.5707475142   46.1001095013
   1.5461782558    1.7853710791   47.9934112990
   0.0000000000    4.4634303757   47.9934112990
   1.5461782558    0.0000000000   49.8866298748
   0.0000000000    2.6780592966   49.8866298748
   0.0000000000    0.8926882176   51.9564456555
   1.5461782558    1.7853710791   56.7587744573
   1.5461782558    3.5707475142   51.9564456555
   0.0000000000    4.4634303757   56.7587744573
   1.5461782558    0.0000000000   58.8286734601
   0.0000000000    0.8926882176   60.7218920358
   0.0000000000    2.6780592966   58.8286734601
   1.5461782558    3.5707475142   60.7218920358
   1.5461782558    1.7853710791   62.6150273894
   0.0000000000    4.4634303757   62.6150273894
   1.5461782558    0.0000000000   64.6849263922
   0.0000000000    2.6780592966   64.6849263922
   0.0000000000    0.8926882176   69.4900847439
   1.5461782558    1.7853710791   71.5607327453
   1.5461782558    3.5707475142   69.4900847439
   0.0000000000    4.4634303757   71.5607327453
   1.5461782558    0.0000000000   73.4578627576
   0.0000000000    0.8926882176   75.3615673125
   0.0000000000    2.6780592966   73.4578627576
   1.5461782558    3.5707475142   75.3615673125
   1.5461782558    1.7853710791   77.4183172303
   0.0000000000    4.4634303757   77.4183172303
