Bi6 Te9 
1.0
4.3732525185000002e+00 0.0000000000000000e+00 0.0000000000000000e+00 
-2.1866268354999998e+00 3.7492830148000000e+00 0.0000000000000000e+00 
-1.0000000000000000e-10 -1.0000000000000000e-10 3.0200215878500000e+01 
Bi Te 
6 9 
Cartesian
   0.0000018015    2.5054546254    2.0281619378
  -0.0000003833    2.4935881446    8.0385726617
  -0.0000001015    0.0059337652   12.0948844572
   2.1866278705    3.7433478997   18.1053314213
   2.1866260662    1.2556948701   22.1616432168
   2.1866238814    1.2438283893   28.1720599807
   2.1866260651    1.2629384850    3.7770503993
   0.0000000071    0.0000000122    0.0000010195
   2.1866278716    3.7361042850    6.2896781602
   2.1866282538    1.2497597551   10.0667285594
   0.0000018004    2.5126982401   13.8437789587
   2.1866238825    1.2365847746   16.3564369198
  -0.0000001989    0.0131769676   23.9105377183
  -0.0000025709    2.4995232596   20.1334873191
  -0.0000003822    2.4863445297   26.4231654792
