Bi6 Te9 
1.0
4.3877817032999999e+00 0.0000000000000000e+00 0.0000000000000000e+00 
-2.1938914298999999e+00 3.7999304209000000e+00 0.0000000000000000e+00 
-1.0000000000000000e-10 -1.0000000000000000e-10 3.0300549558699998e+01 
Bi Te 
6 9 
Cartesian
  -0.0000025794    2.5332882139    2.0287611755
  -0.0000025794    2.5332882139    8.0714300909
   4.3877816961    0.0000000124   12.1289463818
   0.0000001092    0.0000000122   18.1716031769
   2.1938928527    1.2666422069   22.2291194678
   2.1938928527    1.2666422069   28.2717762630
   2.1938928528    1.2666422070    3.7669340206
   0.0000000072    0.0000000124    0.0000010229
   0.0000002143    0.0000000122    6.3332390655
   2.1938928528    1.2666422070   10.1001730861
  -0.0000025794    2.5332882139   13.8671071066
   2.1938928527    1.2666422069   16.4334424521
   4.3877816960    0.0000000124   23.9673104932
  -0.0000025795    2.5332882138   20.2003764726
  -0.0000025795    2.5332882138   26.5336155381
