Bi6 Te9 
1.0
4.3877817033413233e+00 0.0000000000000000e+00 0.0000000000000000e+00
-2.1938914298605745e+00 3.7999304208617311e+00 0.0000000000000000e+00
-1.0718571333363748e-10 -1.3895859386945002e-10 3.0300549558727614e+01
Bi Te 
6 9 
Cartesian
-2.5793409265300030e-06 2.5332882138875084e+00 2.0323942113311380e+00
-2.5793409265300030e-06 2.5332882138875084e+00 8.0677940249512492e+00
1.6053156536673426e-08 3.7624585632828345e-08 1.2132582447713858e+01
2.4481063718426975e-08 3.2708306443472109e-08 1.8167967110966824e+01
2.1938928527599346e+00 1.2666422069021799e+00 2.2232755533729435e+01
2.1938928527599346e+00 1.2666422068018477e+00 2.8268170497616357e+01
2.1938928528602668e+00 1.2666422070025121e+00 3.7793269453615972e+00
2.4681728175135392e-08 4.2741529278892995e-08 1.9273821066843534e-07
1.6554817678444472e-08 3.9029236829787265e-08 6.3208461406539760e+00
-2.5794412587583568e-06 2.5332882137871766e+00 1.3879530332011131e+01
2.1938928527599346e+00 1.2666422069021799e+00 1.0100173086015573e+01
2.1938928527599346e+00 1.2666422069021799e+00 1.6421019226769882e+01
2.5384053773614859e-08 3.3811960955368401e-08 2.3979703418026705e+01
-2.5794412587583568e-06 2.5332882137871766e+00 2.0200376472665106e+01
-2.5794412587583568e-06 2.5332882137871766e+00 2.6521222613319082e+01
