Bi6 Te9 
1.0
4.3732525185000002e+00 0.0000000000000000e+00 0.0000000000000000e+00 
-2.1866268354999998e+00 3.7873477777000000e+00 0.0000000000000000e+00 
-1.0000000000000000e-10 -1.0000000000000000e-10 2.9896688417400000e+01 
Bi Te 
6 9 
Cartesian
  -0.0000025708    2.5248997809    2.0103549779
  -0.0000025708    2.5248997809    7.9552098210
   4.3732524721    0.0000000803   11.9759257562
  -2.1866266572    3.7873477776   17.9207626612
   2.1866282537    1.2624479967   21.9414785964
   2.1866282537    1.2624479967   27.8863453981
   2.1866282538    1.2624479968    3.7440519806
   0.0000000064    0.0000000111    0.0000009936
   0.0000000592    0.0000000929    6.2215307563
   2.1866282538    1.2624479968    9.9655528402
  -0.0000025708    2.5248997809   13.7096048208
   2.1866282537    1.2624479967   16.1870835966
   2.1866256829    3.7873477776   23.6751576611
  -0.0000025709    2.5248997808   19.9311355772
  -0.0000025709    2.5248997808   26.1526364368
