Bi6 Te9 
1.0
4.3732525185000002e+00 0.0000000000000000e+00 0.0000000000000000e+00 
-2.1866268354999998e+00 3.7873477777000000e+00 0.0000000000000000e+00 
-1.0000000000000000e-10 -1.0000000000000000e-10 3.0500722940500001e+01 
Bi Te 
6 9 
Cartesian
  -0.0000025708    2.5248997809    2.0399097008
  -0.0000025708    2.5248997809    8.1270091297
   4.3732525113    0.0000000124   12.2068163309
   0.0000001132    0.0000000122   18.2939066096
   2.1866282537    1.2624479967   22.3737138108
   2.1866282537    1.2624479967   28.4608040895
   2.1866282538    1.2624479968    3.7876712769
   0.0000000071    0.0000000123    0.0000010296
   0.0000002193    0.0000000121    6.3792262030
   2.1866282538    1.2624479968   10.1668974799
  -0.0000025708    2.5248997809   13.9545687568
   2.1866282537    1.2624479967   16.5461541837
   4.3732525112    0.0000000125   24.1214967375
  -0.0000025709    2.5248997808   20.3338254606
  -0.0000025709    2.5248997808   26.7130516636
