Bi6 Te9 
1.0
4.3732525185000002e+00 0.0000000000000000e+00 0.0000000000000000e+00 
-2.1866268354999998e+00 3.8250337584000000e+00 0.0000000000000000e+00 
-1.0000000000000000e-10 -1.0000000000000000e-10 3.0200215878500000e+01 
Bi Te 
6 9 
Cartesian
  -0.0000003832    2.5433949971    2.0230671614
  -0.0000003852    2.5566525641    8.0436764982
   2.1866278706    3.8184049749   12.0898108209
   0.0000001039    0.0066283627   18.1104050576
   2.1866260681    1.2683811942   22.1565393803
   2.1866260661    1.2816387612   28.1771638172
   2.1866238825    1.2616606100    3.7563632514
   0.0000000071    0.0000000125    0.0000010195
   0.0000002166    0.0133521218    6.3103955082
   2.1866282538    1.2750099778   10.0667285594
  -0.0000003822    2.5366705877   13.8230918108
   2.1866260651    1.2883631706   16.3771240677
   2.1866278716    3.8116805655   23.8898203703
  -0.0000025709    2.5500237805   20.1334873191
   0.0000018004    2.5633731483   26.4438526271
