Bi6 Te9 
1.0
4.3732525185000002e+00 0.0000000000000000e+00 0.0000000000000000e+00 
-2.1866268354999998e+00 3.7873477777000000e+00 0.0000000000000000e+00 
-1.0000000000000000e-10 -1.0000000000000000e-10 3.0200215878500000e+01 
Bi Te 
6 9 
Cartesian
  -0.0000025708    2.5248997809    2.0256643799
  -0.0000025708    2.5248997809    8.0410792796
   4.3732524562    0.0000001079   12.0924080395
  -2.1866266023    3.7873477776   18.1078078390
   2.1866282537    1.2624479967   22.1591365989
   2.1866282537    1.2624479967   28.1745665987
   2.1866282538    1.2624479968    3.7668427263
   0.0000000063    0.0000000110    0.0000010095
   0.0000000331    0.0000001216    6.2999160333
   2.1866282538    1.2624479968   10.0667285594
  -0.0000025708    2.5248997809   13.8335712857
   2.1866282537    1.2624479967   16.3666445928
   2.1866256829    3.7873477776   23.9002998452
  -0.0000025709    2.5248997808   20.1334873191
  -0.0000025709    2.5248997808   26.4334033524
