Bi6 Te9 
1.0
4.3732525184737980e+00 0.0000000000000000e+00 0.0000000000000000e+00
-2.1866268355122616e+00 3.7873477776718039e+00 0.0000000000000000e+00
-1.0683079115439686e-10 -1.3849846270619657e-10 3.0200215878546778e+01
Bi Te 
6 9 
Cartesian
-2.5708000000000000e-06 2.5248997808999998e+00 2.0256643798999998e+00
-2.5708000000000000e-06 2.5248997808999998e+00 8.0410792795999999e+00
1.6000000000000001e-08 3.7499999999999998e-08 1.2092408039500000e+01
2.4400000000000000e-08 3.2600000000000001e-08 1.8107807838999999e+01
2.1866282536999999e+00 1.2624479967000000e+00 2.2159136598900002e+01
2.1866282536999999e+00 1.2624479966000000e+00 2.8174566598700000e+01
2.1866282537999999e+00 1.2624479968000000e+00 3.7668125260999998e+00
2.4599999999999999e-08 4.2599999999999998e-08 1.9210000000000001e-07
1.6499999999999999e-08 3.8899999999999998e-08 6.2999160332999997e+00
-2.5708999999999998e-06 2.5248997808000002e+00 1.3833571285800000e+01
2.1866282536999999e+00 1.2624479967000000e+00 1.0066728559400000e+01
2.1866282536999999e+00 1.2624479967000000e+00 1.6366644592800000e+01
2.5300000000000002e-08 3.3699999999999997e-08 2.3900299845199999e+01
-2.5708999999999998e-06 2.5248997808000002e+00 2.0133487319099999e+01
-2.5708999999999998e-06 2.5248997808000002e+00 2.6433403352399999e+01
