Bi60 
1.0
3.0923565116999998e+00 0.0000000000000000e+00 0.0000000000000000e+00 
0.0000000000000000e+00 5.3561185932999997e+00 0.0000000000000000e+00 
0.0000000000000000e+00 0.0000000000000000e+00 8.3222057044500005e+01 
Bi 
60 
Cartesian
   0.0000000000    0.0000000000    7.2283932421
   1.5461782558    2.6780592966    7.2283932421
   1.5461782558    0.8926882176    9.2851681265
   0.0000000000    1.7853710791   11.1888726814
   0.0000000000    3.5707475142    9.2851681265
   1.5461782558    4.4634303757   11.1888726814
   0.0000000000    0.0000000000   13.0859194717
   1.5461782558    0.8926882176   15.1566506951
   1.5461782558    2.6780592966   13.0859194717
   0.0000000000    3.5707475142   15.1566506951
   0.0000000000    1.7853710791   19.9617258248
   1.5461782558    4.4634303757   19.9617258248
   0.0000000000    0.0000000000   22.0317080496
   1.5461782558    2.6780592966   22.0317080496
   1.5461782558    0.8926882176   23.9248434033
   0.0000000000    1.7853710791   25.8181452010
   0.0000000000    3.5707475142   23.9248434033
   1.5461782558    4.4634303757   25.8181452010
   0.0000000000    0.0000000000   27.8881274259
   1.5461782558    0.8926882176   32.7072670832
   1.5461782558    2.6780592966   27.8881274259
   0.0000000000    3.5707475142   32.7072670832
   0.0000000000    1.7853710791   34.7907312813
   1.5461782558    4.4634303757   34.7907312813
   0.0000000000    0.0000000000   36.7153245725
   1.5461782558    2.6780592966   36.7153245725
   1.5461782558    0.8926882176   38.6513192855
   0.0000000000    1.7853710791   40.6208524875
   0.0000000000    3.5707475142   38.6513192855
   1.5461782558    4.4634303757   40.6208524875
   0.0000000000    0.0000000000   42.6012045570
   1.5461782558    0.8926882176   44.5707377590
   1.5461782558    2.6780592966   42.6012045570
   0.0000000000    3.5707475142   44.5707377590
   0.0000000000    1.7853710791   46.5067324720
   1.5461782558    4.4634303757   46.5067324720
   0.0000000000    0.0000000000   48.4313257632
   1.5461782558    2.6780592966   48.4313257632
   1.5461782558    0.8926882176   50.5147899613
   0.0000000000    1.7853710791   55.3339296186
   0.0000000000    3.5707475142   50.5147899613
   1.5461782558    4.4634303757   55.3339296186
   0.0000000000    0.0000000000   57.4039118435
   1.5461782558    0.8926882176   59.2972136412
   1.5461782558    2.6780592966   57.4039118435
   0.0000000000    3.5707475142   59.2972136412
   0.0000000000    1.7853710791   61.1903489949
   1.5461782558    4.4634303757   61.1903489949
   0.0000000000    0.0000000000   63.2603312197
   1.5461782558    2.6780592966   63.2603312197
   1.5461782558    0.8926882176   68.0654063494
   0.0000000000    1.7853710791   70.1361375728
   0.0000000000    3.5707475142   68.0654063494
   1.5461782558    4.4634303757   70.1361375728
   0.0000000000    0.0000000000   72.0331843631
   1.5461782558    0.8926882176   73.9368889180
   1.5461782558    2.6780592966   72.0331843631
   0.0000000000    3.5707475142   73.9368889180
   0.0000000000    1.7853710791   75.9936388358
   1.5461782558    4.4634303757   75.9936388358
