Bi6 Te9 
1.0
4.3732525185000002e+00 0.0000000000000000e+00 0.0000000000000000e+00 
-2.1866268354999998e+00 3.7873477777000000e+00 0.0000000000000000e+00 
3.0200215870000002e-01 -1.0000000000000000e-10 3.0198705830000002e+01 
Bi Te 
6 9 
Cartesian
   0.0101001600    2.5252482169    2.0252037296
   0.0905665384    2.5245513449    8.0410396001
   4.4840223205    0.0003490166   12.0914410195
  -1.9953929772    3.7869993416   18.1072648105
   2.3980613033    1.2627964327   22.1576662299
   2.4785278629    1.2620995607   28.1735202196
   2.2022309766    1.2629592887    3.7661712002
   0.0000000173    0.0000000123    0.0000010194
  -2.1015641970    3.7868364857    6.3000540103
   2.2872955394    1.2624479968   10.0662252104
   0.1162742995    2.5254072855   13.8324266093
   2.3723535422    1.2619404921   16.3662792207
   4.5901911159    0.0005095573   23.8986518197
   0.2013323023    2.5248997808   20.1324806196
   0.2863968651    2.5243884889   26.4325346298
