Bi6 Te9 
1.0
4.4165548645000001e+00 0.0000000000000000e+00 0.0000000000000000e+00 
-2.2082780141999998e+00 3.8248487093999999e+00 0.0000000000000000e+00 
-1.0000000000000000e-10 -1.0000000000000000e-10 3.0499247364399999e+01 
Bi Te 
6 9 
Cartesian
  -0.0000025963    2.5499004145    2.0344614452
  -0.0000025963    2.5499004145    8.1319533263
   4.4165547977    0.0000001157   12.2008884164
  -2.2082777620    3.8248487093   18.2983589480
   2.2082794465    1.2749482948   22.3672940381
   2.2082794465    1.2749482948   28.4647950690
   2.2082794465    1.2749482948    3.7660775638
   0.0000000062    0.0000000108    0.0000010166
   0.0000000331    0.0000001240    6.4003280579
   2.2082794465    1.2749482948   10.1664056217
  -0.0000025963    2.5499004145   13.9325136848
   2.2082794465    1.2749482948   16.5667336796
   2.2082768502    3.8248487093   24.0989193065
  -0.0000025963    2.5499004145   20.3328417427
  -0.0000025963    2.5499004145   26.7331698006
