Bi6 Te9 
1.0
4.4165548645197958e+00 0.0000000000000000e+00 0.0000000000000000e+00
-2.2082780142413281e+00 3.8248487093862429e+00 0.0000000000000000e+00
-1.0788859055367550e-10 -1.3986982380039548e-10 3.0499247364405967e+01
Bi Te 
6 9 
Cartesian
-2.5962551208156396e-06 2.5499004145432980e+00 2.0457217672978105e+00
-2.5962551208156396e-06 2.5499004145432980e+00 8.1206991039933225e+00
1.6158426144799374e-08 3.7871311276873536e-08 1.2212142638689935e+01
2.4641599870819046e-08 3.2922793270028724e-08 1.8287104725668790e+01
2.2082794464714426e+00 1.2749482947704296e+00 2.2378548260365406e+01
2.2082794464714426e+00 1.2749482946694395e+00 2.8453540846676578e+01
2.2082794465724325e+00 1.2749482948714197e+00 3.8041101252682510e+00
2.4843580197629038e-08 4.3021809610528334e-08 1.9400210390099749e-07
1.6663376961824354e-08 3.9285173564543479e-08 6.3622954964072180e+00
-2.5963561109790444e-06 2.5499004144423085e+00 1.3970546246276038e+01
2.2082794464714426e+00 1.2749482947704296e+00 1.0166405621675469e+01
2.2082794464714426e+00 1.2749482947704296e+00 1.6528701118183676e+01
2.5550511341464013e-08 3.4033685067483678e-08 2.4136951867951506e+01
-2.5963561109790444e-06 2.5499004144423085e+00 2.0332841742683254e+01
-2.5963561109790444e-06 2.5499004144423085e+00 2.6695137239090474e+01
