Bi6 Te9 
1.0
4.3732525184737980e+00 0.0000000000000000e+00 0.0000000000000000e+00 
-2.1866268355122616e+00 3.7873477776718039e+00 0.0000000000000000e+00 
-1.0683079115439686e-10 -1.3849846270619657e-10 3.0200215878546778e+01 
Bi Te 
6 9 
Cartesian
  -0.0000025708    2.5248997809    2.0256643799
  -0.0000025708    2.5248997809    8.0410792796
   0.0000000160    0.0000000375   12.0924080395
   0.0000000244    0.0000000326   18.1078078390
   2.1866282537    1.2624479967   22.1591365989
   2.1866282537    1.2624479966   28.1745665987
   2.1866282538    1.2624479968    3.7668125261
   0.0000000246    0.0000000426    0.0000001921
   0.0000000165    0.0000000389    6.2999160333
  -0.0000025709    2.5248997808   13.8335712858
   2.1866282537    1.2624479967   10.0667285594
   2.1866282537    1.2624479967   16.3666445928
   0.0000000253    0.0000000337   23.9002998452
  -0.0000025709    2.5248997808   20.1334873191
  -0.0000025709    2.5248997808   26.4334033524
