Bi6 Te9 
1.0
4.4308019143999999e+00 0.0000000000000000e+00 0.0000000000000000e+00 
-2.2154015409999999e+00 3.8371870165000002e+00 0.0000000000000000e+00 
-1.0000000000000000e-10 -1.0000000000000000e-10 3.0597632714700001e+01 
Bi Te 
6 9 
Cartesian
  -0.0000026046    2.5581259567    2.0371291909
  -0.0000026046    2.5581259567    8.1620715148
   4.4308019071    0.0000000126   12.2363298966
   0.0000001247    0.0000000123   18.3613028181
   2.2154029779    1.2790610597   22.4355611999
   2.2154029779    1.2790610597   28.5605035238
   2.2154029780    1.2790610598    3.7652528890
   0.0000000072    0.0000000125    0.0000010329
   0.0000002219    0.0000000123    6.4339784143
   2.2154029780    1.2790610597   10.1992007057
  -0.0000026046    2.5581259567   13.9644535947
   2.2154029779    1.2790610597   16.6331791200
   4.4308019070    0.0000000126   24.1636543004
  -0.0000026047    2.5581259567   20.3984320090
  -0.0000026047    2.5581259566   26.8323798257
