Bi6 Te9 
1.0
4.4308019143720019e+00 0.0000000000000000e+00 0.0000000000000000e+00
-2.2154015410448036e+00 3.8371870164856379e+00 0.0000000000000000e+00
-1.0823662067562659e-10 -1.4032101990542116e-10 3.0597632714749103e+01
Bi Te 
6 9 
Cartesian
-2.6046301953409117e-06 2.5581259567223400e+00 2.0523209154792528e+00
-2.6046301953409117e-06 2.5581259567223400e+00 8.1468950889903162e+00
1.6210550461122838e-08 3.7993477643256644e-08 1.2251536920050139e+01
2.4721089453212326e-08 3.3028996564537781e-08 1.8346095794651571e+01
2.2154029778950473e+00 1.2790610596905490e+00 2.2450737625711394e+01
2.2154029778950473e+00 1.2790610595892331e+00 2.8545327098030771e+01
2.2154029779963631e+00 1.2790610597918650e+00 3.8163815332458517e+00
2.4923721333976358e-08 4.3160590602739546e-08 1.9462792147385606e-07
1.6717130163032923e-08 3.9411900808604893e-08 6.3828191724154033e+00
-2.6047315112812936e-06 2.5581259566210242e+00 1.4015612836625051e+01
2.2154029778950473e+00 1.2790610596905490e+00 1.0199200705661255e+01
2.2154029778950473e+00 1.2790610596905490e+00 1.6582019878177974e+01
2.5632932916650486e-08 3.4143471908739970e-08 2.4214813542286304e+01
-2.6047315112812936e-06 2.5581259566210242e+00 2.0398432009040452e+01
-2.6047315112812936e-06 2.5581259566210242e+00 2.6781251181455858e+01
