Bi6 Te9 
1.0
4.3732525185000002e+00 0.0000000000000000e+00 0.0000000000000000e+00 
-2.1866268354999998e+00 3.7873477777000000e+00 0.0000000000000000e+00 
-6.0400431769999996e-01 -1.0000000000000000e-10 3.0194175231199999e+01 
Bi Te 
6 9 
Cartesian
  -0.0201562194    2.5262632261    2.0238400803
  -0.1811794221    2.5235363357    8.0408900291
  -0.2214914214    0.0013635436   12.0885701897
   1.8041142604    3.7859843324   18.1056050415
   1.7638007874    1.2638114419   22.1532852021
   1.6027772827    1.2610845515   28.1703502480
   2.1553809944    1.2644439291    3.7643078261
  -0.0000000133    0.0000000123    0.0000010193
   2.0165355805    3.7853556327    6.3004373804
   1.9852936826    1.2624479968   10.0647150123
  -0.2325778415    2.5268919258   13.8290228384
   1.8151992068    1.2604558518   16.3651523928
  -0.4339134870    0.0019931561   23.8937378508
  -0.4026723173    2.5248997808   20.1294602189
  -0.5727596291    2.5229038485   26.4298674051
