Bi6 Te9 
1.0
4.3732525185000002e+00 0.0000000000000000e+00 0.0000000000000000e+00 
-2.1866268354999998e+00 3.7873477777000000e+00 0.0000000000000000e+00 
-1.0000000000000000e-10 -6.0400431769999996e-01 3.0194175231199999e+01 
Bi Te 
6 9 
Cartesian
  -0.0000003871    2.5034173945    2.0237706337
   0.0000018053    2.3450436879    8.0409504175
  -0.0000001123   -0.2228167212   12.0885098014
   2.1866234992    3.4061602968   18.1056956240
   2.1866238776    0.8382997721   22.1532248137
   2.1866260700    0.6799259447   28.1704106363
   2.1866260607    1.2292619225    3.7641266610
   0.0000000071   -0.0000000080    0.0000010193
   2.1866278760    3.6191986768    6.3006185455
   2.1866282538    1.0611134256   10.0647150123
   0.0000017960    2.2903753480   13.8288416734
   2.1866238869    0.8929681120   16.3653335578
  -0.0000001377   -0.4358569570   23.8935868799
  -0.0000025709    2.1222300344   20.1294602189
  -0.0000003778    1.9540815375   26.4300485702
