Bi6 Te9 
1.0
4.3732525185000002e+00 0.0000000000000000e+00 0.0000000000000000e+00 
-2.1866268354999998e+00 3.7873477777000000e+00 0.0000000000000000e+00 
-1.0000000000000000e-10 -1.0000000000000000e-10 3.0350841331000002e+01 
Bi Te 
6 9 
Cartesian
  -0.0000025708    2.5248997809    2.0329145278
  -0.0000025708    2.5248997809    8.0840376410
   4.3732525113    0.0000000124   12.1498666966
   0.0000001083    0.0000000122   18.2009746344
   2.1866282537    1.2624479967   22.2668036900
   2.1866282537    1.2624479967   28.3179419786
   2.1866282538    1.2624479968    3.7774657121
   0.0000000071    0.0000000123    0.0000010246
   0.0000002148    0.0000000122    6.3394712813
   2.1866282538    1.2624479968   10.1169369934
  -0.0000025708    2.5248997809   13.8944330563
   2.1866282537    1.2624479967   16.4564082747
   4.3732525112    0.0000000124   24.0113700497
  -0.0000025709    2.5248997808   20.2339043376
  -0.0000025709    2.5248997808   26.5733756189
