Bi6 Te9
1.0
   4.3732525184737980    0.0000000000000000    0.0000000000000000
  -2.1866268355122616    3.7873477776718039    0.0000000000000000
  -0.0000000001068308   -0.0000000001384985   30.3508413310395255
Bi Te
6 9
direct
   0.3333330000055366    0.6666670000032110    0.0670744999984905 Bi
   0.3333330000140443    0.6666670000104949    0.2662589999998018 Bi
   0.0000000086264020    0.0000000099160305    0.4004080000000941 Bi
   0.0000000099087860    0.0000000086295330    0.5995919999983570 Bi
   0.6666670000051176    0.3333330000071149    0.7337409999986494 Bi
   0.6666670000004234    0.3333329999879951    0.9329259999996977 Bi
   0.6666670000151732    0.3333330000112478    0.1247280000000204 Te
   0.0000000112490938    0.0000000112479768    0.0000000063608817 Te
   0.0000000089173669    0.0000000102786683    0.2086049999985348 Te
   0.3333329999861686    0.6666669999911052    0.4580620000013611 Te
   0.6666669999880152    0.3333329999924725    0.3333329999985552 Te
   0.6666669999969252    0.3333330000001009    0.5419380000004013 Te
   0.0000000102679953    0.0000000089269877    0.7913949999999164 Te
   0.3333329999950786    0.6666669999987337    0.6666669999998959 Te
   0.3333330000039887    0.6666670000063621    0.8752719999984306 Te
