Bi6 Te9 
1.0
4.3439009460999998e+00 0.0000000000000000e+00 0.0000000000000000e+00 
-2.1719510454000002e+00 3.7619285702999998e+00 0.0000000000000000e+00 
-1.0000000000000000e-10 -1.0000000000000000e-10 2.9997523758700002e+01 
Bi Te 
6 9 
Cartesian
  -0.0000025535    2.5079536342    2.0186443646
  -0.0000025535    2.5079536341    7.9805412208
   4.3439009389    0.0000000123   12.0178179509
   0.0000000890    0.0000000122   17.9797058078
   2.1719524541    1.2539749361   22.0169825379
   2.1719524541    1.2539749360   27.9788703949
   2.1719524542    1.2539749361    3.7649892070
   0.0000000071    0.0000000123    0.0000010126
   0.0000001967    0.0000000121    6.2342053776
   2.1719524542    1.2539749361    9.9991645871
  -0.0000025536    2.5079536341   13.7641537940
   2.1719524542    1.2539749361   16.2333699647
   4.3439009388    0.0000000124   23.7633183811
  -0.0000025536    2.5079536341   19.9983591716
  -0.0000025536    2.5079536341   26.2325645493
