Bi6 Te9 
1.0
4.3439009460504172e+00 0.0000000000000000e+00 0.0000000000000000e+00
-2.1719510454328343e+00 3.7619285703154310e+00 0.0000000000000000e+00
-1.0611378437503309e-10 -1.3756891481444423e-10 2.9997523758707729e+01
Bi Te 
6 9 
Cartesian
-2.5535457888454239e-06 2.5079536341893296e+00 2.0120689073081617e+00
-2.5535457888454239e-06 2.5079536341893296e+00 7.9871106784638144e+00
1.5892614214068299e-08 3.7248314564222574e-08 1.2011248493179467e+01
2.4236236676454155e-08 3.2381201461164162e-08 1.7986275265481797e+01
2.1719524541022475e+00 1.2539749360547794e+00 2.2010413080197452e+01
2.1719524541022475e+00 1.2539749359554504e+00 2.7985469850107098e+01
2.1719524542015765e+00 1.2539749361541082e+00 3.7415311433767107e+00
2.4434894354130009e-08 4.2314085344956843e-08 1.9081069940765752e-07
1.6389258408257931e-08 3.8638918307953552e-08 6.2576334436412724e+00
-2.5536451176842617e-06 2.5079536340900010e+00 1.3740725728002010e+01
2.1719524541022475e+00 1.2539749360547794e+00 9.9991645870179831e+00
2.1719524541022475e+00 1.2539749360547794e+00 1.6256798030758585e+01
2.5130196225995501e-08 3.3473818688381354e-08 2.3739890315019991e+01
-2.5536451176842617e-06 2.5079536340900010e+00 1.9998359171643280e+01
-2.5536451176842617e-06 2.5079536340900010e+00 2.6255992615284555e+01
