Bi6 Te9 
1.0
4.3732525185000002e+00 0.0000000000000000e+00 0.0000000000000000e+00 
-2.2245003133000001e+00 3.7871584055000000e+00 0.0000000000000000e+00 
-1.0000000000000000e-10 -1.0000000000000000e-10 3.0200215878500000e+01 
Bi Te 
6 9 
Cartesian
  -0.0315522615    2.5248757860    2.0256069995
  -0.0189442780    2.5246674923    8.0411396800
   4.3669456465    0.0001053277   12.0923476390
  -2.2181947283    3.7870523650   18.1078682395
   2.1676964831    1.2624909131   22.1590761985
   2.1803044666    1.2622826194   28.1745967989
   2.1606871441    1.2623924471    3.7667219254
   0.0000000227    0.0000000113    0.0000009931
  -2.2111854330    3.7871508312    6.3000066340
   2.1740037738    1.2623848727   10.0667285594
  -0.0385616006    2.5247773198   13.8334806851
   2.1873138057    1.2623810856   16.3667351934
   4.3599364415    0.0000066333   23.9002092445
  -0.0252515687    2.5247735327   20.1334873191
  -0.0119349390    2.5247659583   26.4334939531
