Bi60 
1.0
3.0923565116999998e+00 0.0000000000000000e+00 0.0000000000000000e+00 
0.0000000000000000e+00 5.3561185932999997e+00 0.0000000000000000e+00 
0.0000000000000000e+00 0.0000000000000000e+00 8.3222057044500005e+01 
Bi 
60 
Cartesian
   0.0000000000    0.0000000000    8.6329568655
   1.5461782558    2.6780592966    8.6329568655
   1.5461782558    0.8926882176   10.6897067833
   0.0000000000    1.7853710791   12.5934113381
   0.0000000000    3.5707475142   10.6897067833
   1.5461782558    4.4634303757   12.5934113381
   0.0000000000    0.0000000000   14.4906245726
   1.5461782558    0.8926882176   16.5613557960
   1.5461782558    2.6780592966   14.4906245726
   0.0000000000    3.5707475142   16.5613557960
   0.0000000000    1.7853710791   21.3836578914
   1.5461782558    4.4634303757   21.3836578914
   0.0000000000    0.0000000000   23.4671220895
   1.5461782558    2.6780592966   23.4671220895
   1.5461782558    0.8926882176   25.3917986028
   0.0000000000    1.7853710791   27.3277933158
   0.0000000000    3.5707475142   25.3917986028
   1.5461782558    4.4634303757   27.3277933158
   0.0000000000    0.0000000000   29.2973265178
   1.5461782558    0.8926882176   31.2775953652
   1.5461782558    2.6780592966   29.2973265178
   0.0000000000    3.5707475142   31.2775953652
   0.0000000000    1.7853710791   33.2471285672
   1.5461782558    4.4634303757   33.2471285672
   0.0000000000    0.0000000000   35.1831232802
   1.5461782558    2.6780592966   35.1831232802
   1.5461782558    0.8926882176   37.1078830156
   0.0000000000    1.7853710791   39.1914304357
   0.0000000000    3.5707475142   37.1078830156
   1.5461782558    4.4634303757   39.1914304357
   0.1546178256    0.0000000000   44.0306266088
   1.7007960814    0.8926882176   46.1141740289
   1.7007960814    2.6780592966   44.0306266088
   0.1546178256    3.5707475142   46.1141740289
   0.1546178256    1.7853710791   48.0389337643
   1.7007960814    4.4634303757   48.0389337643
   0.1546178256    0.0000000000   49.9749284773
   1.7007960814    2.6780592966   49.9749284773
   1.7007960814    0.8926882176   51.9444616793
   0.1546178256    1.7853710791   53.9247305267
   0.1546178256    3.5707475142   51.9444616793
   1.7007960814    4.4634303757   53.9247305267
   0.1546178256    0.0000000000   55.8942637287
   1.7007960814    0.8926882176   57.8302584417
   1.7007960814    2.6780592966   55.8942637287
   0.1546178256    3.5707475142   57.8302584417
   0.1546178256    1.7853710791   59.7549349550
   1.7007960814    4.4634303757   59.7549349550
   0.1546178256    0.0000000000   61.8383991531
   1.7007960814    2.6780592966   61.8383991531
   1.7007960814    0.8926882176   66.6607012485
   0.1546178256    1.7853710791   68.7314324719
   0.1546178256    3.5707475142   66.6607012485
   1.7007960814    4.4634303757   68.7314324719
   0.1546178256    0.0000000000   70.6286457064
   1.7007960814    0.8926882176   72.5323502612
   1.7007960814    2.6780592966   70.6286457064
   0.1546178256    3.5707475142   72.5323502612
   0.1546178256    1.7853710791   74.5891001790
   1.7007960814    4.4634303757   74.5891001790
