Bi161 Te243 
1.0
1.3109606670964475e+01 0.0000000000000000e+00 0.0000000000000000e+00 
-6.5548965220701145e+00 1.1353314115281604e+01 0.0000000000000000e+00 
-2.4701710695911077e-04 4.6437694738620907e-06 9.0604457533903741e+01 
Bi Te 
161 243 
Cartesian
   4.2720997298    2.4966506463    2.0635437017
   8.8374874789    2.4966619996    2.0635346412
  -2.1133122949    6.2358760035    2.0635437017
  -4.3960353442   10.1896562908    2.0635346412
  -0.0000686894   10.0918361344    2.0251727139
   2.1132314505    6.2358873568    2.0635437017
   4.3959092600   10.1896562908    2.0635437017
   6.5547723095    6.3074018796    2.0081390759
  -0.0000162569    2.5229565786    7.9843728530
   4.3637456633    2.5235128923    8.0114273441
   8.7458152276    2.5235128923    8.0114364045
  -2.1824166794    6.3018390633    8.0114364045
  -4.3734695008   10.0968432528    8.0114364045
  -0.0000719350   10.0918364419    8.0241663308
   2.1823088753    6.3018390633    8.0114273441
   4.3733321730   10.0968318994    8.0114364045
   6.5547558969    6.3074021881    8.0281710478
  -2.1832235805    3.7834357810   12.0709600639
  -0.0000242906    0.0020139019   12.0709600639
   2.1831574933    3.7834244277   12.0709600639
   4.3690416581    0.0004833317   12.0640741251
   6.5547721346    3.7846619390   12.0715036906
   8.7405840515    0.0004836031   12.0640741251
  -0.0000818975    7.5679154479   12.0640741251
   4.3699857946    7.5687669469   12.0715036906
   8.7394504722    7.5687555935   12.0715036906
   2.1849567467    3.7844805946   18.0931665428
   6.5546967316    3.7841740550   18.0919886848
  10.9244760337    3.7845033012   18.0931665428
  -2.1846945933   11.3530993296   18.0928041249
  -4.3697344786    7.5690283816   18.0919886848
   6.5544772875   11.3532015095   18.0931665428
   2.1843899057   11.3530879763   18.0928041249
  -0.0000983453    7.5693235679   18.0928041249
   4.3695367620    7.5689943217   18.0919886848
   2.1850778332    1.2613770400   22.1478972263
  -0.0000952452    5.0460837735   22.1478972263
   4.3699331468    5.0460043003   22.1476254130
  10.9245840103    1.2614678665   22.1478066219
   8.7394764818    5.0460156536   22.1476254130
   6.5549030225    1.2615132798   22.1483502486
  -2.1851175602    8.8303250212   22.1482596442
   2.1848780563    8.8303250212   22.1482596442
   6.5546704769    8.8301774281   22.1476254130
   2.1848254440    1.2614908817   28.1689258473
  -0.0000919943    5.0458683691   28.1689258473
   4.3697463064    5.0459137824   28.1690164517
   6.5546768548    1.2615362950   28.1688352428
  10.9245807044    1.2614681751   28.1689258473
   8.7396436007    5.0459251357   28.1690164517
  -2.1851012007    8.8303593897   28.1689258473
   2.1847960940    8.8303253298   28.1689258473
   6.5546606138    8.8303707430   28.1690164517
  -0.0001020038    2.5229691742   32.2230222996
   4.3697362981    2.5229237609   32.2229316952
   8.7396270374    2.5229691742   32.2229316952
  -2.1850718807    6.3073920748   32.2229316952
  -4.3700417581   10.0918603888   32.2229316952
  -0.0002100115   10.0918036222   32.2230222996
   2.1847729755    6.3073807215   32.2229316952
   4.3696610634   10.0918830954   32.2229316952
   6.5546768246    6.3074034282   32.2229316952
  -0.0000856363    2.5229808359   38.2407891601
   4.3697854388    2.5229467760   38.2409703690
   8.7396958430    2.5229581293   38.2408797646
  -2.1851276167    6.3074377965   38.2408797646
  -4.3702154803   10.0919288171   38.2406985557
  -0.0002657467   10.0917812240   38.2408797646
   2.1848024523    6.3073696767   38.2408797646
   6.5546669728    6.3073923833   38.2407891601
   4.3695528898   10.0917925773   38.2409703690
  -2.1850055284    3.7845045416   42.2937983590
   2.1847793368    3.7844250684   42.2937983590
   6.5547225150    3.7844023617   42.2937983590
   8.7399314808    0.0000421835   42.2937983590
  -6.5547364061   11.3532935763   42.2937983590
  -2.1845704853   11.3532935763   42.2937983590
  -4.3700076141    7.5688933823   42.2937983590
  -0.0001774309    7.5688706757   42.2937983590
   4.3697723021    7.5688593224   42.2937983590
   2.1847957085    3.7844367300   48.3100249437
  -2.1850488478    3.7843572568   48.3100249437
  13.1093023525    0.0000516728   48.3100249437
   6.5547651051    3.7845275565   48.3100249437
   8.7391714315    0.0000362557   48.3100249437
  -2.1850260589   11.3532371181   48.3100249437
  -4.3699844908    7.5688482774   48.3100249437
  -0.0001413943    7.5688255708   48.3100249437
   4.3696969058    7.5689618105   48.3100249437
   2.1852642033    1.2615943016   52.3625811203
  -0.0001251808    5.0459036691   52.3627623292
   4.3697458938    5.0459604357   52.3628529337
  10.9249014782    1.2612991154   52.3630341426
   8.7396497439    5.0458923158   52.3627623292
   6.5548665318    1.2615488883   52.3626717247
  -2.1851343871    8.8303492764   52.3628529337
   2.1847891272    8.8303379231   52.3626717247
   6.5546667564    8.8304060430   52.3627623292
   2.1849069493    1.2614583702   58.3799855629
  -0.0001153664    5.0459266841   58.3798949585
   4.3697753735    5.0459266841   58.3798043540
  10.9244524561    1.2614129569   58.3799855629
   8.7396398937    5.0459266841   58.3798949585
   6.5546600377    1.2615605500   58.3798043540
  -2.1850328053    8.8303495848   58.3799855629
   2.1847858315    8.8303836447   58.3798949585
   6.5546700166    8.8303495848   58.3798949585
  -0.0000794904    2.5229707226   62.4334477841
   4.3698112491    2.5229707226   62.4335383885
   8.7395774474    2.5229820759   62.4335383885
  -2.1850821418    6.3074049765   62.4335383885
  -4.3700061351   10.0918392305   62.4334477841
  -0.0002268272   10.0917597573   62.4337195975
   2.1848413718    6.3074163299   62.4335383885
   4.3695983644   10.0918505838   62.4334477841
   6.5546862279    6.3074049765   62.4335383885
  -0.0001745604    2.5229483245   68.4534797560
   4.3695064245    2.5230164444   68.4536609649
   8.7397183495    2.5230277977   68.4536609649
  -2.1850461149    6.3072463387   68.4536609649
  -4.3702323030   10.0919984855   68.4535703605
  -0.0003546705   10.0917941258   68.4532985471
   2.1847135291    6.3072009254   68.4536609649
   4.3696474987   10.0919644255   68.4535703605
   6.5546829232    6.3074052851   68.4542045917
  -2.1847575905    3.7842336107   72.5092976931
  -0.0001221735    0.0003598460   72.5092976931
   2.1843888853    3.7842336107   72.5092976931
   4.3698068261    0.0000564379   72.5079386262
   6.5546204784    3.7840973709   72.5083916485
   8.7396240716    0.0000247878   72.5080292307
  -4.3697334690    7.5690992905   72.5083916485
  -0.0002270298    7.5687927510   72.5079386262
   4.3693884045    7.5690879372   72.5083916485
   2.1860635979    3.7852103043   78.5315947764
  10.9231313886    3.7852103043   78.5315947764
   6.5545909584    3.7840068529   78.5278799937
  -2.1829584780   11.3520125094   78.5355813726
  -4.3697407112    7.5690995991   78.5278799937
   6.5545157233   11.3517854429   78.5315947764
   2.1824160021   11.3520238627   78.5355813726
  -0.0002500400    7.5714837954   78.5355813726
   4.3692408973    7.5690882458   78.5278799937
   2.1859356262    1.2607897651   82.5813422148
  -0.0002272425    5.0473243822   82.5813422148
   4.3740355285    5.0484710671   82.5861442511
  10.9232459448    1.2607784117   82.5813422148
   8.7351100581    5.0484597138   82.5860536466
   6.5545939759    1.2669886752   82.5945704656
  -2.1899624636    8.8276033239   82.5945704656
   2.1894392956    8.8276146772   82.5945704656
   6.5545319614    8.8252758940   82.5861442511
   2.1803542215    1.2640030603   88.5785418634
  -0.0002500947    5.0408873604   88.5785418634
   4.3320945485    5.0242661146   88.6956934270
   6.5545710939    1.2685897992   88.5784512590
  10.9288011508    1.2640030603   88.5785418634
   8.7769853479    5.0242661146   88.6956934270
  -2.1913814990    8.8268088986   88.5784512590
   2.1907929421    8.8268088986   88.5784512590
   6.5545083527    8.8736753852   88.6956934270
   2.0069678814    1.3642371175    3.6441656447
  -0.0000234455    4.8404175399    3.6441656447
   4.3790026020    5.0512031765    3.7754605641
  11.1026424079    1.3642257642    3.6441656447
   8.7305530019    5.0512031765    3.7754605641
   6.5548024122    1.2585945357    3.7623229178
   6.5547920947    3.7548929323    0.0313702531
  -2.1824979634    8.8318000097    3.7623229178
  -4.3443244453    7.5836505246    0.0313712498
   2.1823849065    8.8318000097    3.7623229178
   4.3442384563    7.5836505246    0.0313713404
   6.5547468699    8.8197768507    3.7754605641
   2.1851987851    3.7846162274    6.2509102506
   2.1818530860    1.2632497163   10.0416920285
  -0.0000425448    5.0423706193   10.0416920285
   4.3669771659    5.0442779763   10.0451349979
   6.5547682256    3.7882833494    6.2816070408
   6.5547917943    1.2663037576   10.0379772457
  10.9243444486    3.7846048741    6.2509102506
  10.9277436420    1.2632497163   10.0416920285
   8.7425312557    5.0442779763   10.0451349979
  -2.1847148204   11.3531441373    6.2777472909
  -2.1891943858    8.8279515578   10.0379772457
   6.5547193289   11.3529738362    6.2509102506
   2.1845597677   11.3531441373    6.2777472909
  -0.0000595780    7.5692207825    6.2777472909
   4.3731347907    7.5669501198    6.2816161013
   2.1890406186    8.8279402045   10.0379772457
   6.5547231082    8.8336395686   10.0451349979
   8.7363461857    7.5669614732    6.2816070408
  -0.0000190492    2.5229568775   13.8170891695
   4.3695964203    2.5207770409   13.8121059243
   8.7399525509    2.5207883942   13.8121059243
  -2.1830093695    6.3082880430   13.8121059243
  -4.3681955586   10.0931310163   13.8121059243
  -0.0000877002   10.0918367383   13.8067602613
   2.1828501662    6.3082766897   13.8121059243
   6.5547335657    6.3073911314   13.8149146625
   4.3680069981   10.0931310163   13.8121059243
   2.1850739754    1.2613199763   16.3502991977
  -0.0000859947    5.0461856562   16.3502991977
   4.3692541491    5.0456179904   16.3492119442
   0.0000030940    2.5229799072   20.1206224890
   4.3701888012    2.5228777274   20.1204412801
   6.5547484146    1.2607863704   16.3489401308
  10.9243441797    1.2613653895   16.3502991977
   8.7401215544    5.0456293437   16.3492119442
   8.7393454027    2.5229231406   20.1203506756
  -2.1844397175    8.8307220899   16.3489401308
  -2.1851699838    6.3077093473   20.1203506756
  -4.3698121162   10.0915872889   20.1203506756
  -0.0001180244   10.0918370619   20.1209849068
   2.1842318289    8.8306993833   16.3489401308
   2.1849567288    6.3077093473   20.1203506756
   4.3695105271   10.0915645823   20.1203506756
   6.5546928338    8.8309378029   16.3492119442
   6.5546967125    6.3074028078   20.1196258400
   2.1849606049    3.7844922450   23.8907645715
   4.3699730697    0.0000182848   23.8913081982
  10.9244667823    3.7845149517   23.8907645715
   6.5547202464    3.7846511914   23.8910363848
   8.7399336496    0.0000335573   23.8912175937
  -0.0001141498    7.5688243192   23.8913081982
   4.3699404613    7.5687448460   23.8910363848
   6.5546843447   11.3532018066   23.8907645715
   8.7394313577    7.5687789060   23.8910363848
  -2.1850002902    3.7844244483   30.1961099802
  -0.0001320826    2.5229121105   26.4260585022
   4.3697324368    2.5230483503   26.4260585022
  -0.0000960745    0.0000551286   30.1961099802
   2.1847860998    3.7844244483   30.1961099802
   4.3696068332    0.0000101009   30.1960193757
   8.7396625055    2.5230256436   26.4260585022
   6.5546833943    3.7844130950   30.1961099802
   8.7396277452    0.0000117008   30.1960193757
  -2.1850954051    6.3073690711   26.4260585022
  -4.3700652824   10.0918146784   26.4260585022
  -4.3700003331    7.5688927623   30.1961099802
  -0.0001221048   10.0918373850   26.4261491066
  -0.0001641130    7.5688587023   30.1961099802
   2.1848871018    6.3073690711   26.4260585022
   4.3697489708   10.0918033251   26.4261491066
   4.3697069621    7.5688700556   30.1961099802
   6.5546860738    6.3073917777   26.4261491066
   2.1848489689    1.2614684722   33.9657990403
  -0.0001405731    5.0459481395   33.9657990403
   4.3697370576    5.0459027262   33.9657084359
   6.5547134896    1.2614684722   33.9657084359
  10.9245321263    1.2614798255   33.9657084359
   8.7396015781    5.0459027262   33.9657084359
  -2.1851235596    8.8303483335   33.9657990403
   2.1847737350    8.8303596868   33.9657084359
   6.5545923716    8.8303937467   33.9657084359
  -2.1850711549    3.7845042445   36.4981936284
   2.1849327882    3.7844134180   36.4982842328
   4.3697528420    0.0000456598   36.4982842328
   2.1848711174    1.2614687952   40.2674296663
   4.3697592059    5.0459030492   40.2674296663
   6.5546727674    3.7844020647   36.4982842328
  -0.0001249792    5.0459598157   40.2673390618
   8.7395975071    5.0459030492   40.2674296663
  10.9246722608    1.2615482684   40.2673390618
   6.5548536247    1.2614233819   40.2674296663
  -2.1851997333    8.8304054230   40.2673390618
  -0.0001616303    7.5688476720   36.4982842328
  -6.5549310180   11.3533046326   36.4981936284
   2.1847199035   11.3532705727   36.4982842328
   4.3697094445    7.5689044386   36.4982842328
   2.1847041164    8.8303145965   40.2674296663
   6.5546276298    8.8303486565   40.2674296663
   8.7395674102    7.5688930853   36.4982842328
  -0.0001276560    2.5229584263   44.0363938907
   4.3697434196    2.5229470730   44.0363032863
   8.7396800424    2.5229811330   44.0363938907
  -2.1850516501    6.3074608002   44.0363938907
  -4.3698707664   10.0918723476   44.0363032863
   0.0000265277   10.0918609943   44.0364844952
   2.1847800970    6.3074040336   44.0363032863
   4.3698386109   10.0917701677   44.0363032863
   6.5547101658    6.3073359138   44.0363938907
   2.1847490643    1.2614918247   46.5675200164
  -0.0001749291    5.0459033721   46.5675200164
   4.3697420292    5.0459714920   46.5675200164
   6.5544955982    1.2615599446   46.5673388075
  10.9243732289    1.2614009982   46.5676106209
   8.7396786532    5.0458920188   46.5675200164
  -2.1850858129    8.8303149194   46.5675200164
   2.1847328233    8.8303943926   46.5675200164
   6.5546956661    8.8303603327   46.5675200164
  -2.1850393828    3.7844029671   54.1053578609
  -0.0000399548    2.5229360426   50.3363936365
   4.3699359970    2.5230382224   50.3362124275
   2.1848454566    3.7844597337   54.1052672565
   4.3701338552    0.0000528001   54.1052672565
   6.5547230867    3.7844597337   54.1052672565
   8.7398136277    2.5229019827   50.3363936365
  -4.3700452572   10.0918045506   50.3363936365
  -6.5539552714   11.3533168884   54.1053578609
  -4.3700470238    7.5688258678   54.1053578609
  -2.1850557158    6.3073930032   50.3363936365
  -0.0002987232   10.0918045506   50.3363936365
   2.1846915654   11.3532601218   54.1053578609
  -0.0000982013    7.5688599277   54.1053578609
   4.3697269898    7.5689507542   54.1052672565
   2.1848088047    6.3073930032   50.3363936365
   4.3696051254   10.0919180837   50.3363030320
   6.5546667702    6.3074043565   50.3363936365
  -0.0001292357    2.5228795990   56.6373900312
   4.3696697365    2.5229931321   56.6371182178
   8.7396719079    2.5229817788   56.6371182178
  -2.1850401199    6.3074046795   56.6372088223
  -4.3699247849   10.0918389335   56.6372994267
  -0.0001454766   10.0918275801   56.6372088223
   2.1848047360    6.3074160328   56.6372088223
   4.3697321533   10.0918502868   56.6372088223
   6.5547216951    6.3073933262   56.6372088223
  -2.1850692086    3.7844373500   60.4066260691
   2.1848255986    1.2614813739   64.1762245248
  -0.0000918400    5.0459042746   64.1762245248
   4.3697792347    5.0459383345   64.1763151292
   2.1848741606    3.7844714100   60.4066260691
  10.9245743039    1.2614927272   64.1762245248
   8.7395716524    5.0459269812   64.1763151292
   6.5547032276    1.2615494938   64.1764057337
   6.5546927978    3.7844600566   60.4065354646
  -6.5550230804   11.3532831514   60.4065354646
  -2.1850328195   11.3533058580   60.4066260691
  -2.1852386971    8.8302931153   64.1764057337
  -4.3700038071    7.5688716040   60.4065354646
   2.1844121936   11.3533058580   60.4066260691
   2.1848617963    8.8302931153   64.1764057337
  -0.0001219357    7.5688943106   60.4066260691
   4.3697491399    7.5688829573   60.4065354646
   6.5546083299    8.8304066484   64.1762245248
   2.1847652075    3.7844263198   66.7104312020
   4.3695656817    0.0001151801   66.7105218064
  -2.1851311026    3.7844263198   66.7104312020
   6.5546035056    3.7846306795   66.7109748287
   8.7396039606    0.0000867000   66.7105218064
   6.5537285886   11.3533175344   66.7104312020
  -0.0001522303    7.5687129807   66.7105218064
   4.3698499396    7.5687697473   66.7108842243
   8.7394326032    7.5688038072   66.7108842243
  -0.0001876843    5.0455867049   70.4811169112
  -0.0001707079    2.5229372684   74.2532522917
   2.1844806680    1.2616633501   70.4810263067
   4.3693818683    5.0457342980   70.4812981201
   4.3698314720    2.5224263692   74.2516214114
  10.9247930865    1.2616519968   70.4810263067
   8.7399280885    5.0457115914   70.4812981201
   6.5546598220    1.2614589904   70.4805732844
   8.7394141362    2.5223923093   74.2516214114
  -2.1851706725    8.8303729116   70.4805732844
  -2.1847145222    6.3078029483   74.2517120159
  -4.3694746435   10.0920214893   74.2515308070
   2.1846545194    8.8303502050   70.4805732844
  -0.0002262716   10.0918398362   74.2509871802
   2.1843437576    6.3078143016   74.2516214114
   4.3690483136   10.0919987827   74.2516214114
   6.5545583635    8.8307589243   70.4812075156
   6.5546212365    6.3073715223   74.2508059713
   2.1866527795    1.2603693957   76.7911737517
  -0.0002114631    5.0481188174   76.7911737517
   4.3692008117    5.0456551479   76.7854656708
   6.5546098698    1.2590864710   76.7885462224
  10.9225669246    1.2603921023   76.7911737517
   8.7399830046    5.0456551479   76.7854656708
  -2.1831231168    8.8315653329   76.7885462224
   2.1825856584    8.8315653329   76.7885462224
   6.5545477299    8.8308841339   76.7854656708
  -0.0002075564    2.5229716514   80.5561513800
   2.1860150418    3.7851992477   84.3204041727
   4.3649420012    0.0027279823   84.3308236853
   4.3731047737    2.5240388631   80.5591413271
  10.9231483805    3.7851992477   84.3204041727
   6.5545881307    3.7958373040   84.3379814375
   8.7442548774    0.0027343401   84.3308236853
   8.7360867507    2.5240388631   80.5591413271
  -2.1878387119    6.3098468681   80.5591413271
  -4.3693607136   10.0883206322   80.5591413271
  -0.0002697170   10.0918401601   80.5694702353
  -0.0002592188    7.5634345927   84.3308236853
   4.3794768180    7.5631848202   84.3379814375
   2.1873548638    6.3098355148   80.5591413271
   4.3688148390   10.0883092788   80.5591413271
   6.5545130506   11.3518084462   84.3204041727
   6.5545647245    6.3073945519   80.5534332463
   8.7296179353    7.5631734669   84.3379814375
  -2.1383831226    3.7574180101   90.6028266537
  -0.0002241212    0.0540498249   90.6028266537
   2.1378793306    3.7574180101   90.6028266537
  -0.0002311664    2.5229606187   86.8119361504
   4.3713438023    2.5521272849   86.8545202455
   8.7377998250    2.5521272849   86.8545202455
  -2.1737686844   11.3466884228   90.5878769182
  -2.2113088338    6.2942931504   86.8545202455
  -4.3945678831   10.0757755427   86.8545202455
  -0.0002999118   10.0918404813   86.8362181451
   2.1731212504   11.3466770694   90.5878769182
  -0.0002829860    7.5821565284   90.5878769182
   2.2107843596    6.2942931504   86.8545202455
   4.3939813331   10.0757755427   86.8545202455
   6.5545275835    6.3074062338   86.9636986168
