Bi6 Te9 
1.0
4.3290752302000000e+00 0.0000000000000000e+00 0.0000000000000000e+00 
-2.1645381856000001e+00 3.7490891238000001e+00 0.0000000000000000e+00 
-1.0000000000000000e-10 -1.0000000000000000e-10 2.9895142335100001e+01 
Bi Te 
6 9 
Cartesian
  -0.0000025449    2.4993939989    2.0145977678
  -0.0000025449    2.4993939989    7.9504636283
   4.3290752231    0.0000000122   11.9796412268
   0.0000000816    0.0000000121   17.9155011083
   2.1645395894    1.2496951248   21.9446787068
   2.1645395894    1.2496951248   27.8805385883
   2.1645395895    1.2496951249    3.7630211463
   0.0000000071    0.0000000122    0.0000010092
   0.0000001888    0.0000000121    6.2020163337
   2.1645395894    1.2496951249    9.9650374800
  -0.0000025449    2.4993939989   13.7280586263
   2.1645395894    1.2496951248   16.1670837088
   4.3290752230    0.0000000123   23.6931260014
  -0.0000025449    2.4993939988   19.9301048551
  -0.0000025450    2.4993939988   26.1321211888
