Bi6 Te9 
1.0
4.3290752302241842e+00 0.0000000000000000e+00 0.0000000000000000e+00
-2.1645381855660935e+00 3.7490891237822881e+00 0.0000000000000000e+00
-1.0575161847117638e-10 -1.3709939268148294e-10 2.9895142335130007e+01
Bi Te 
6 9 
Cartesian
-2.5448305477096617e-06 2.4993939988874092e+00 2.0052017245125522e+00
-2.5448305477096617e-06 2.4993939988874092e+00 7.9598507030034540e+00
1.5838372787986071e-08 3.7121186221842348e-08 1.1970254152127549e+01
2.4153518501678756e-08 3.2270684555521619e-08 1.7924888182956153e+01
2.1645395894277235e+00 1.2496951248238004e+00 2.1935291632080247e+01
2.1645395894277235e+00 1.2496951247248105e+00 2.7889955558134456e+01
2.1645395895267132e+00 1.2496951249227901e+00 3.7287613131767063e+00
2.4351498161528578e-08 4.2169667548012909e-08 1.9015946328575775e-07
1.6333321937610632e-08 3.8507043840791128e-08 6.2362761667759905e+00
-2.5449295375395865e-06 2.4993939987884195e+00 1.3693828688355010e+01
2.1645395894277235e+00 1.2496951248238004e+00 9.9650374799526968e+00
2.1645395894277235e+00 1.2496951248238004e+00 1.6201313646827678e+01
2.5044426971002971e-08 3.3359572684695653e-08 2.3658866168307707e+01
-2.5449295375395865e-06 2.4993939987884195e+00 1.9930104855130999e+01
-2.5449295375395865e-06 2.4993939987884195e+00 2.6166381021906993e+01
