Bi162 Te242 
1.0
1.3117519508820397e+01 0.0000000000000000e+00 0.0000000000000000e+00 
-6.5588676746474945e+00 1.1360118740701008e+01 0.0000000000000000e+00 
-1.7247991049736588e-03 -3.9924564251708517e-06 9.0581402910243341e+01 
Bi Te 
162 242 
Cartesian
  -0.0331970970    2.5435986586    1.9997837483
   4.4055944180    2.5436100187    1.9997928065
   8.7449477900    2.5157322849    2.0550112297
  -2.1787879426    6.3155443221    2.0550021715
  -4.3726357747   10.0596122591    1.9997837483
   0.0047781164   10.0950444685    2.0215142269
   2.1861591220    6.3168393771    2.0215142269
   6.5510918181    6.3155443221    2.0550112297
   4.3674617836   10.0950558286    2.0215051687
   0.0023746426    2.5230933789    8.0217622278
   4.3701413491    2.5231160991    8.0217169371
   8.7449976677    2.5176746012    8.0457844158
  -2.1805613727    6.3145784480    8.0457844158
  -4.3727245958   10.1006220224    8.0217350533
   0.0002563118   10.0976343110    8.0238727745
   2.1860317596    6.3117270591    8.0238727745
   6.5526764732    6.3145784480    8.0457844158
   4.3717943052   10.0975775104    8.0238637163
  -2.1834150954    3.7849183890   12.0837403110
   4.3694126717    0.0012940210   12.0850084507
   2.1860833837    3.7841231806   12.0849178693
   0.0013833679    0.0012874094   12.0849178693
   6.5554766766    3.7849411092   12.0837403110
  -4.3727334730    7.5769601050   12.0837403110
   2.1856179391   11.3582324284   12.0831062412
   0.0013966833    7.5743699979   12.0831062412
   4.3706259944    7.5743586378   12.0830156598
  -2.1865756323    3.7866903022   18.1028745344
   2.1857654437    3.7868834242   18.1029651158
   8.7441989832    0.0000017278   18.1029651158
   6.5584577793    3.7867584629   18.1029651158
  -2.1856870844   11.3599816214   18.1030556972
  -0.0004363281    7.5734609231   18.1028745344
   6.5578414563   11.3600838624   18.1029651158
   4.3721641827    7.5733814022   18.1029651158
   8.7445220209    7.5733359618   18.1029651158
  -0.0004829327    5.0488674764   22.1543995238
   2.1858434578    1.2622331769   22.1543995238
   4.3720782234    5.0490151579   22.1544901052
   6.5584374104    1.2622786174   22.1543995238
  10.9309723337    1.2621990966   22.1544901052
   8.7445213258    5.0489356371   22.1544901052
  -2.1867765311    8.8356721777   22.1543995238
   2.1856993641    8.8356948979   22.1543995238
   6.5582342878    8.8355699366   22.1544901052
  -0.0006302421    5.0489694524   28.1683706072
   2.1855059479    1.2623237928   28.1681894444
   4.3718915649    5.0489353720   28.1683706072
   6.5579228107    1.2621761113   28.1684611886
  10.9305889098    1.2622101916   28.1684611886
   8.7443871367    5.0489240119   28.1683706072
  -2.1869369566    8.8356378322   28.1683706072
   2.1856110850    8.8356491924   28.1683706072
   6.5581394505    8.8356491924   28.1683706072
  -0.0006505990    2.5244896069   32.2191709454
   4.3718121774    2.5244668867   32.2192615268
   8.7443339842    2.5244555266   32.2192615268
  -0.0009980140   10.0979399678   32.2191709454
  -2.1869441962    6.3111807070   32.2191709454
  -4.3734280002   10.0977922863   32.2193521082
   2.1855251386    6.3111920671   32.2192615268
   6.5580338281    6.3111579868   32.2192615268
   4.3716746444   10.0979172476   32.2191709454
  -0.0006929636    2.5244779818   38.2329608660
   4.3717763731    2.5244666216   38.2329608660
   8.7443047386    2.5244666216   38.2329608660
  -2.1870324723    6.3111804420   38.2329608660
  -4.3729850164   10.0977579408   38.2331420288
  -0.0005025576   10.0979965033   38.2327797032
   2.1854630971    6.3112372425   38.2330514474
   4.3721569807   10.0978829022   38.2329608660
   6.5579652303    6.3111236414   38.2329608660
  -2.1870877043    3.7867119566   42.2838517855
  -2.1876560373   11.3601168770   42.2838517855
   2.1854165056    3.7867119566   42.2838517855
  13.1159794783    0.0000213836   42.2838517855
   6.5579186363    3.7866892364   42.2838517855
  -4.3733159258    7.5734030567   42.2838517855
   2.1850690929   11.3600941568   42.2837612041
  -0.0008115025    7.5734257769   42.2837612041
   4.3715856863    7.5734030567   42.2838517855
   2.1852167322    3.7867230517   48.2975511247
   6.5577254218    3.7866889713   48.2975511247
  10.9302341109    3.7867003314   48.2975511247
  -6.5589863968   11.3601166119   48.2975511247
   4.3697852957   -0.0000019896   48.2975511247
  -0.0010178363    7.5734255119   48.2975511247
   8.7441744406    0.0000013157   48.2975511247
   4.3714908530    7.5734141517   48.2975511247
   8.7439995423    7.5734027916   48.2975511247
  -0.0010841061    5.0489343063   52.3484420443
   2.1846454378    1.2622432062   52.3484420443
   4.3714311419    5.0489343063   52.3484420443
   6.5571606860    1.2622204860   52.3484420443
  10.9296693751    1.2622318461   52.3484420443
   8.7439332723    5.0489343063   52.3484420443
  -2.1874039386    8.8356481266   52.3484420443
   2.1850719568    8.8356481266   52.3484420443
   6.5575806461    8.8356367665   52.3484420443
  -0.0011854980    5.0489340412   58.3621413835
   2.1849834830    1.2622315810   58.3621413835
   4.3713166325    5.0489340412   58.3621413835
   6.5574856134    1.2622315810   58.3621413835
  10.9299877438    1.2622315810   58.3621413835
   8.7438187629    5.0489340412   58.3621413835
  -2.1875315655    8.8356478615   58.3621413835
   2.1849705649    8.8356478615   58.3621413835
   6.5574858129    8.8356478615   58.3621413835
  -0.0012255329    2.5244655559   62.4130323030
   4.3712897150    2.5244655559   62.4130323030
   8.7437918455    2.5244655559   62.4130323030
  -0.0014220962   10.0978818364   62.4130323030
  -2.1875453654    6.3111793762   62.4130323030
  -4.3739373442   10.0978818364   62.4130323030
   2.1849698825    6.3111793762   62.4130323030
   6.5574720130    6.3111793762   62.4130323030
   4.3710800342   10.0978818364   62.4130323030
  -0.0012875723    2.5244652908   68.4267316422
   4.3712079980    2.5244312105   68.4268222237
   8.7437035707    2.5245107313   68.4267316422
  -2.1876205221    6.3111563909   68.4267316422
  -4.3733369504   10.0978702112   68.4268222237
  -0.0008085834   10.0978929315   68.4267316422
   2.1848881651    6.3111904713   68.4268222237
   4.3717001042   10.0978815713   68.4268222237
   6.5574362069    6.3111791111   68.4268222237
  -2.1876705293    3.7867333460   72.4776225618
   4.3703340828    0.0000211173   72.4776225618
   2.1848022211    3.7866651853   72.4776225618
  -0.0011980815    0.0000080279   72.4776225618
   6.5573240274    3.7866992657   72.4776225618
  -4.3739391483    7.5734244461   72.4776225618
   2.1844416887   11.3600928259   72.4776225618
  -0.0013864365    7.5734017259   72.4776225618
   4.3710763414    7.5734017259   72.4776225618
   2.1847204987    3.7870170839   78.4915030638
  10.9297182140    3.7867103608   78.4909595754
   6.5573669352    3.7866990006   78.4909595754
  -2.1885225658   11.3599448793   78.4914124824
  -6.5599397173   11.3599448793   78.4914124824
  -4.3740791390    7.5734469013   78.4909595754
   2.1846157625   11.3599562395   78.4915030638
  -0.0013566573    7.5734696215   78.4915030638
   4.3707060362    7.5734809816   78.4915030638
  -0.0026297432    5.0487057731   82.5427563090
   2.1847657579    1.2622645957   82.5409446809
   4.3719187197    5.0487739338   82.5427563090
   6.5576613701    1.2632415658   82.5427563090
  10.9294289177    1.2632415658   82.5428468904
   8.7434107929    5.0489102552   82.5431186346
  -2.1885888386    8.8348629476   82.5427563090
   2.1845953617    8.8355672748   82.5445679370
   6.5578517906    8.8348743077   82.5427563090
   2.1845661643    1.2622302507   88.5452235542
   0.0069167879    5.0489440705   88.5569991366
   4.3621234690    5.0489327104   88.5569991366
   6.5527393603    1.2547325718   88.5569991366
  10.9338924947    1.2547439319   88.5569991366
   8.7432761964    5.0489440695   88.5783763477
  -2.1836794269    8.8431328489   88.5569991366
   2.1845134780    8.8356465302   88.5670536723
   6.5526869472    8.8431442090   88.5569991366
  -2.1513250489    3.7665155272    0.0447219408
   0.0145261547    5.0288631176    3.7697805938
   4.3577499814    5.0288631176    3.7697896519
   4.3654761291    0.0040577657    0.0135869387
   2.1862149102    3.7785913348    0.0135833154
   0.0070276894    0.0040569023    0.0135796922
   6.5339691582    1.2595984397    3.7697896519
   6.5237583728    3.7665268873    0.0447275569
  10.9558981021    1.2595984397    3.7697896519
   8.7449104690    5.0489364468    3.7845091299
   8.7450217373    0.0063083418    0.0069824584
  -2.1964746974    8.8583705052    3.7697896519
  -4.3725852818    7.6137901405    0.0447252923
  -0.0055223792    7.5702581672    0.0069835725
   2.1861018752    8.8356502677    3.7712933032
   4.3779066450    7.5702581672    0.0069824856
   6.5686780734    8.8583705052    3.7697896519
   4.3497720857    0.0130789684    6.2868837922
   2.1861808925    3.7605625499    6.2869019085
   0.0225425812    0.0130614738    6.2869109667
   2.1864804633    1.2622337102   10.0564379325
   0.0077425411    5.0489929709   10.0572531651
   4.3643462375    5.0490384114   10.0572531651
   6.5550736230    1.2553267579   10.0572531651
  10.9241535427    3.7908031852    6.3043841193
   8.7449365871    0.0087932844    6.2800720707
   6.5658511275    3.7908145453    6.3043569449
  10.9353937953    1.2553040377   10.0572531651
   8.7448171344    5.0489361700   10.0639561889
  -2.1824207891    8.8425001422   10.0572531651
  -0.0078062068    7.5690309979    6.2800720707
   4.3799384813    7.5690082776    6.2800811289
   2.1860217445    8.8356499911   10.0462022340
   6.5545161973    8.8425001422   10.0572531651
   8.7448320239    7.5652139969    6.3043750612
   0.0000012721    2.5243768163   13.8294251079
   4.3721164325    2.5243427359   13.8296062707
   8.7447564303    2.5239224118   13.8228126655
  -2.1860495283    6.3113973601   13.8228126655
  -4.3722186371   10.0981225402   13.8295156893
   0.0000015324   10.0981111803   13.8260735960
   2.1860065506    6.3107384731   13.8260735960
   6.5580365053    6.3114882411   13.8228126655
   4.3732775949   10.0980884600   13.8261641774
  -0.0004710118    5.0492653359   16.3614470635
   2.1857832244    1.2623697537   16.3619905519
   4.3722344424    5.0490267734   16.3614470635
  -0.0003482364    2.5244560595   20.1289087733
   4.3721145427    2.5245015000   20.1288181919
   6.5585805132    1.2619721495   16.3614470635
  10.9308399677    1.2623470334   16.3613564821
   8.7446447588    5.0488450115   16.3610847379
   8.7447084943    2.5244787797   20.1289087733
  -2.1865612831    8.8354906711   16.3614470635
  -0.0005316803   10.0980313817   20.1287276105
  -2.1866943042    6.3111926000   20.1289087733
  -4.3730993996   10.0978041793   20.1289087733
   2.1859342835    8.8356610729   16.3616282263
   6.5583183629    8.8355020312   16.3613564821
   2.1857881496    6.3112266804   20.1289087733
   4.3720557111   10.0977928191   20.1289993547
   6.5583296339    6.3110903590   20.1289087733
  -2.1867633258    3.7867582076   23.8959175761
   4.3718950443    0.0000124268   23.8958269947
   2.1857600810    3.7867241272   23.8958269947
   6.5582425361    3.7866218861   23.8958269947
   6.5579475889   11.3601176875   23.8959175761
  -4.3729039206    7.5734152273   23.8958269947
  -0.0005531922    7.5733811469   23.8958269947
   2.1859701610   11.3601176875   23.8958269947
   4.3717849687    7.5734379475   23.8958269947
  -0.0007895400    2.5245353027   26.4269431363
   4.3718634405    2.5245012224   26.4270337177
   2.1856204828    3.7867352097   30.1937707763
   8.7442671873    2.5243762610   26.4272148805
  10.9306444205    3.7866784091   30.1937707763
  -0.0006581681   10.0978834225   26.4271242991
  -2.1868470249    6.3111809623   26.4271242991
  -4.3731537379   10.0978720624   26.4270337177
  -0.0006993495    7.5734263098   30.1937707763
   2.1856682250    6.3111582421   26.4270337177
   6.5581506771    6.3111923224   26.4271242991
   4.3718964324   10.0978834225   26.4271242991
   6.5576964936   11.3601174099   30.1937707763
   4.3718683685    7.5734263098   30.1937707763
  -0.0007339736    5.0489351168   33.9605078349
   2.1855924174    1.2622553768   33.9605078349
   4.3717812744    5.0489351168   33.9605078349
   4.3668900601   -0.0000013128   30.1937707763
   6.5580748718    1.2622212964   33.9605078349
   6.5581094944    3.7866897693   30.1938613577
  10.9306688249    1.2622212964   33.9605078349
   8.7442899635    5.0489464769   33.9605078349
   8.7443761295   -0.0000000684   30.1937707763
  -2.1871193950    8.8356034966   33.9605984163
   2.1853302693    8.8357398180   33.9603266721
   6.5577733671    8.8355921365   33.9605984163
   8.7443180293    7.5733808693   30.1937707763
  -2.1869639086    3.7867008518   36.4917145578
  -0.0008276586    5.0489348392   40.2583610350
   2.1855071196    3.7867462923   36.4917145578
   4.3716810305    5.0489461993   40.2583610350
   6.5580158095    3.7866667714   36.4917145578
   8.7436070550    0.0000107289   36.4917145578
   6.5581582732    1.2622323790   40.2583610350
  -2.1825086192   11.3601171323   36.4917145578
  -0.0007733582    7.5734146721   36.4916239764
   6.5574781905   11.3601057722   36.4917145578
   4.3717418880    7.5734146721   36.4917145578
   2.1855382839    8.8357168202   40.2583610350
   8.7442374598    7.5734033120   36.4917145578
   2.1856430235    1.2622323790   40.2584516164
  -0.0008491654    2.5244663664   44.0250980937
   4.3716660826    2.5244663664   44.0250980937
  10.9306997562    1.2622323790   40.2583610350
   8.7441962784    5.0489461993   40.2583610350
   8.7441682130    2.5244663664   44.0250980937
  -2.1868982583    8.8356486595   40.2583610350
  -2.1871362040    6.3111688265   44.0250980937
  -4.3729969233   10.0978826469   44.0250980937
  -0.0004751167   10.0978940070   44.0250980937
   2.1853528089    6.3111688265   44.0250980937
   6.5578614980    6.3111801867   44.0250980937
   4.3720401315   10.0978712867   44.0250980937
   6.5580404139    8.8355804988   40.2584516164
  -0.0009738155    5.0489345616   46.5563048166
   2.1848803465    1.2622548216   46.5562142352
   4.3715283149    5.0489345616   46.5563048166
   6.5573955931    1.2622093811   46.5563048166
  10.9299501934    1.2622321014   46.5563048166
   8.7440370040    5.0489459217   46.5563048166
  -2.1872674130    8.8356483819   46.5563048166
   2.1852478350    8.8356483819   46.5563048166
   6.5577630829    8.8356483819   46.5563048166
  -0.0012576727    2.5244660888   50.3230418752
   2.1851195594    3.7867000761   54.0896883524
   4.3712444578    2.5244660888   50.3230418752
   6.5576216899    3.7867000761   54.0896883524
  10.9301238203    3.7867000761   54.0896883524
   8.7437597057    2.5244660888   50.3230418752
  -2.1870544335   11.3601163566   54.0896883524
  -6.5595530262   11.3601163566   54.0896883524
  -0.0012902653   10.0978937294   50.3229512938
  -2.1873020372    6.3111799091   50.3230418752
  -4.3737923973   10.0978710092   50.3230418752
  -0.0011478030    7.5734138965   54.0896883524
   2.1854608144   11.3601163566   54.0896883524
   4.3713543274    7.5734138965   54.0896883524
   2.1852197696    6.3111685490   50.3230418752
   6.5577153411    6.3111799091   50.3230418752
   4.3712446573   10.0978823693   50.3230418752
   8.7438564579    7.5734138965   54.0896883524
  -0.0012595351    2.5244658112   56.6208950753
   4.3712425953    2.5244658112   56.6208950753
   8.7437578433    2.5244658112   56.6208950753
  -0.0013118057   10.0978820917   56.6208950753
  -2.1874219573    6.3111796315   56.6208950753
  -4.3738139361   10.0978820917   56.6208950753
   2.1850801731    6.3111796315   56.6208950753
   6.5575823035    6.3111796315   56.6208950753
   4.3712034423   10.0978820917   56.6208950753
  -0.0012957885    5.0489337859   64.1542786112
   2.1850699552    1.2622313257   64.1542786112
   4.3712063419    5.0489337859   64.1542786112
   2.1850521077    3.7866997986   60.3876321340
  -6.5598451902   11.3601160791   60.3876321340
   6.5575673556    3.7866997986   60.3876321340
  10.9300694861    3.7866997986   60.3876321340
   6.5575720856    1.2622313257   64.1542786112
  10.9300873336    1.2622313257   64.1542786112
   8.7437150310    5.0489451461   64.1542786112
   8.7440379147   -0.0000024455   60.3876321340
  -2.1870956502   11.3601160791   60.3876321340
  -2.1877074436    8.8356476062   64.1542786112
  -0.0012677248    7.5734136189   60.3876321340
   2.1848078043    8.8356476062   64.1542786112
   4.3712344056    7.5734136189   60.3876321340
   6.5573230523    8.8356476062   64.1542786112
   8.7437496536    7.5734136189   60.3876321340
  -2.1875221704    3.7866995210   66.6854853341
   4.3703358470    0.0000048642   66.6854853341
   2.1849780988    3.7867108811   66.6854853341
  -0.0013894753    5.0489335083   70.4522223927
   4.3710995378    5.0489107881   70.4522223927
   6.5573687304    3.7866995210   66.6854853341
  13.1158428180   -0.0000024871   66.6854853341
   6.5575571040    1.2622310482   70.4522223927
  10.9300002067    1.2622878488   70.4521318113
  -4.3738355535    7.5734360615   66.6854853341
  -2.1874338399    8.8356473287   70.4522223927
   2.1844535977   11.3601044414   66.6854853341
  -0.0013220573    7.5734133413   66.6854853341
   4.3711800733    7.5733906210   66.6854853341
   2.1850748494    8.8356359685   70.4522223927
   6.5575441859    8.8356473287   70.4522223927
   2.1849697102    1.2621742476   70.4522223927
  -0.0014240994    2.5244423153   74.2189594513
   4.3710452372    2.5244536754   74.2189594513
   8.7436082265    5.0489675887   70.4522223927
   8.7435998390    2.5244991159   74.2188688699
  -2.1877308150    6.3112242963   74.2189594513
  -4.3738014135   10.0980062773   74.2188688699
  -0.0011353129   10.0978813160   74.2188688699
   2.1847844356    6.3111334154   74.2188688699
   4.3712028480   10.0977563547   74.2189594513
   6.5573062419    6.3111674957   74.2188688699
  -0.0017932469    2.5246010794   80.5164503259
   2.1848432297    1.2619808479   76.7502567557
  -0.0013847756    5.0489445909   76.7498944301
   4.3708746804    5.0489786712   76.7498944301
   4.3713516415    2.5246465199   80.5164503259
   6.5575355688    1.2622194105   76.7498944301
  10.9297359963    1.2622194105   76.7498944301
   8.7435473392    5.0490922724   76.7498038487
   8.7435586292    2.5246806002   80.5163597445
  -2.1876455796    8.8356924916   76.7498944301
  -2.1880540468    6.3110990574   80.5163597445
  -4.3740590561   10.0976992766   80.5162691631
   2.1846794668    8.8356129707   76.7498038487
   6.5570438608    8.8356924916   76.7498944301
   6.5573765333    6.3111104176   80.5163597445
   4.3709690587    0.0000082712   84.2823721519
   2.1846233534    3.7866305847   84.2823721519
  10.9285453481    3.7873689922   84.2857236638
   8.7434486338    0.0023873969   84.2849990125
   6.5582404023    3.7873576321   84.2857236638
  -6.5603539245   11.3601036658   84.2823721519
  -0.0038609073    7.5722083930   84.2849084311
  -0.0011175154   10.0975970354   80.5177184655
   4.3730815032    7.5722424733   84.2849084311
   2.1846644943    6.3115421020   80.5176278841
   4.3704795062   10.0975970354   80.5177184655
   8.7433405233    7.5721288721   84.2857236638
  -0.0029035591    2.5251801678   86.8150281772
   4.3720646650    2.5251801678   86.8150281772
   8.7433332971    2.5344045834   86.8341408532
  -2.1965760711    6.3062025678   86.8341408532
  -4.3742511280   10.0964607460   86.8150281772
   0.0022911760   10.0955519364   86.8166586425
   2.1845379523    6.3158245892   86.8166586425
   4.3667391495   10.0955519364   86.8166586425
   6.5656514929    6.3062025678   86.8341408532
