Bi6 Te9 
1.0
4.3732525185000002e+00 0.0000000000000000e+00 0.0000000000000000e+00 
-2.1866268354999998e+00 3.7873477777000000e+00 0.0000000000000000e+00 
-1.0000000000000000e-10 6.0400431740000005e-01 3.0194175231199999e+01 
Bi Te 
6 9 
Cartesian
  -0.0000003809    2.5437262276    2.0239095269
   0.0000017991    2.7074046012    8.0408296408
   2.1866278729    4.0075089163   12.0886305781
   0.0000000841    0.3838415124   18.1055446531
   2.1866238838    1.6839474939   22.1533455904
   2.1866260638    1.8476257467   28.1702596655
   2.1866238875    1.2917435343    3.7644587969
   0.0000000071    0.0000000328    0.0000010193
   0.0000001679    0.1720405486    6.3002562154
   2.1866282538    1.4637825679   10.0647150123
  -0.0000003772    2.7555267062   13.8292040035
   2.1866260601    1.6358253889   16.3649712277
   2.1866256899    4.2193130614   23.8939190158
  -0.0000025709    2.9275695272   20.1294602189
   0.0000017954    3.0996085608   26.4297164343
