Bi6 Te9 
1.0
4.3292991162999996e+00 0.0000000000000000e+00 0.0000000000000000e+00 
-2.1646501285999999e+00 3.7873477777000000e+00 0.0000000000000000e+00 
-1.0000000000000000e-10 -1.0000000000000000e-10 3.0200215878500000e+01 
Bi Te 
6 9 
Cartesian
  -0.0000003794    2.5186771685    2.0281619378
  -0.0000025459    2.5311186059    8.0385726617
   2.1646489886    3.7811289526   12.0949146574
   0.0000001029    0.0062198476   18.1053314213
   2.1646515335    1.2562291717   22.1616432168
   2.1646493670    1.2686706091   28.1720599807
   2.1646515346    1.2490862338    3.7770503993
   0.0000000070    0.0000000123    0.0000010195
   0.0000001711    0.0133621417    6.2896781602
   2.1646515326    1.2624479968   10.0667285594
  -0.0000025430    2.5115380179   13.8438091589
   2.1646515306    1.2758097597   16.3564067196
   2.1646489896    3.7739860147   23.9105377183
  -0.0000025450    2.5248997808   20.1334873191
  -0.0000025470    2.5382615438   26.4231654792
