Bi6 Te9 
1.0
4.3513313152000004e+00 0.0000000000000000e+00 0.0000000000000000e+00 
-2.1756662310000001e+00 3.7873477777000000e+00 0.0000000000000000e+00 
-1.0000000000000000e-10 -1.0000000000000000e-10 3.0200215878500000e+01 
Bi Te 
6 9 
Cartesian
   0.0000017939    2.5217638569    2.0269327890
  -0.0000003828    2.5280319175    8.0398108705
   2.1756629090    3.7842156410   12.0936764485
   0.0000000974    0.0031331781   18.1065394300
   2.1756654669    1.2593158601   22.1604050080
   2.1756632902    1.2655839207   28.1732981896
   2.1756654675    1.2557784773    3.7719767630
   0.0000000071    0.0000000123    0.0000010195
   0.0000001991    0.0066722842    6.2947517964
   2.1756676421    1.2624479968   10.0667285594
  -0.0000025570    2.5182264741   13.8387355227
   2.1756676411    1.2691213035   16.3614803558
   2.1756650851    3.7806744708   23.9054640821
  -0.0000025580    2.5248997808   20.1334873191
  -0.0000003834    2.5315693003   26.4282391155
