KPT-Resolved Value to Generate K-Mesh: 0.025
0
Monkhorst-Pack
  13  13  13
0.0  0.0  0.0
