Bi6 Te9 
1.0
4.4449579271999999e+00 0.0000000000000000e+00 0.0000000000000000e+00 
-2.2224795493000000e+00 3.8494464831999999e+00 0.0000000000000000e+00 
-1.0000000000000000e-10 -1.0000000000000000e-10 3.0695389393999999e+01 
Bi Te 
6 9 
Cartesian
  -0.0000026130    2.5662989386    2.0396503040
  -0.0000026130    2.5662989386    8.1921389984
   4.4449579199    0.0000000126   12.2714334673
   0.0000001306    0.0000000124   18.4239559267
   2.2224809908    1.2831475445   22.5032503956
   2.2224809908    1.2831475445   28.6557421595
   2.2224809908    1.2831475446    3.7640528198
   0.0000000072    0.0000000125    0.0000010362
   0.0000002251    0.0000000123    6.4677334130
   2.2224809908    1.2831475446   10.2317862329
  -0.0000026130    2.5662989386   13.9958390527
   2.2224809908    1.2831475445   16.6995503413
   4.4449579197    0.0000000127   24.2276559810
  -0.0000026130    2.5662989385   20.4636031611
  -0.0000026130    2.5662989385   26.9313365742
