Bi6 Te9 
1.0
4.4449579272081516e+00 0.0000000000000000e+00 0.0000000000000000e+00
-2.2224795493282548e+00 3.8494464832164534e+00 0.0000000000000000e+00
-1.0858242692497745e-10 -1.4076933291903604e-10 3.0695389393977038e+01
Bi Te 
6 9 
Cartesian
-2.6129517540996254e-06 2.5662989386293815e+00 2.0588778958599794e+00
-2.6129517540996254e-06 2.5662989386293815e+00 8.1729236846448465e+00
1.6262341709037658e-08 3.8114863380557008e-08 1.2290679476466446e+01
2.4800071106282425e-08 3.3134521232164228e-08 1.8404709917463045e+01
2.2224809907691050e+00 1.2831475445140901e+00 2.2522465709284646e+01
2.2224809907691050e+00 1.2831475444124505e+00 2.8636526845756141e+01
2.2224809908707450e+00 1.2831475446157299e+00 3.8285745283325952e+00
2.5003350377645396e-08 4.3298484800312758e-08 1.9524974014413336e-07
1.6770539887445081e-08 3.9537818280097803e-08 6.4032117044856030e+00
-2.6130533937353066e-06 2.5662989385277424e+00 1.4060391456625689e+01
2.2224809907691050e+00 1.2831475445140901e+00 1.0231786232818198e+01
2.2224809907691050e+00 1.2831475445140901e+00 1.6634997937405441e+01
2.5714827827415797e-08 3.4252557224660564e-08 2.4292177689443886e+01
-2.6130533937353066e-06 2.5662989385277424e+00 2.0463603161111291e+01
-2.6130533937353066e-06 2.5662989385277424e+00 2.6866814865596893e+01
