Bi6 Te9 
1.0
4.2379095732999996e+00 0.0000000000000000e+00 0.0000000000000000e+00 
-2.1189553450999998e+00 3.6701373490000000e+00 0.0000000000000000e+00 
-1.0000000000000000e-10 -1.0000000000000000e-10 2.9265582869500001e+01 
Bi Te 
6 9 
Cartesian
  -0.0000024913    2.4467594560    1.9825296007
  -0.0000024913    2.4467594560    7.7726754199
   4.2379095663    0.0000000120   11.7377229150
   0.0000000446    0.0000000119   17.5278599545
   2.1189567194    1.2233778929   21.4929074496
   2.1189567194    1.2233778929   27.2830444892
   2.1189567194    1.2233778929    3.7371564013
   0.0000000069    0.0000000120    0.0000009879
   0.0000001445    0.0000000118    6.0180573990
   2.1189567194    1.2233778929    9.7551845346
  -0.0000024913    2.4467594560   13.4923409359
   2.1189567194    1.2233778929   15.7732419336
   4.2379095662    0.0000000120   23.2475254705
  -0.0000024913    2.4467594560   19.5103983349
  -0.0000024913    2.4467594560   25.5284264682
