Bi6 Te9 
1.0
4.2379095733448997e+00 0.0000000000000000e+00 0.0000000000000000e+00
-2.1189553451133047e+00 3.6701373489823630e+00 0.0000000000000000e+00
-1.0352460340415640e-10 -1.3421222728775263e-10 2.9265582869530075e+01
Bi Te 
6 9 
Cartesian
-2.4912391601290846e-06 2.4467594560368076e+00 1.9629743381381197e+00
-2.4912391601290846e-06 2.4467594560368076e+00 7.7922248292524063e+00
1.5504833733493602e-08 3.6339454062875624e-08 1.1718173505625552e+01
2.3644871443577744e-08 3.1591098731993213e-08 1.7547409363859192e+01
2.1189567194111225e+00 1.2233778928759735e+00 2.1473358040232338e+01
2.1189567194111225e+00 1.2233778927790684e+00 2.7302623164130367e+01
2.1189567195080281e+00 1.2233778929728789e+00 3.6502376201513451e+00
2.3838681865246412e-08 4.1281619815426713e-08 1.8615491001275757e-07
1.5989359787665275e-08 3.7696127014556314e-08 6.1049469144554394e+00
-2.4913360653399186e-06 2.4467594559399028e+00 1.3405451420422517e+01
2.1189567194111225e+00 1.2233778928759735e+00 9.7551845346067854e+00
2.1189567194111225e+00 1.2233778928759735e+00 1.5860131449159130e+01
2.4517018341086760e-08 3.2657056051170899e-08 2.3160635955029303e+01
-2.4913360653399186e-06 2.4467594559399028e+00 1.9510398334877959e+01
-2.4913360653399186e-06 2.4467594559399028e+00 2.5615345249333398e+01
