Bi6 Te9 
1.0
4.2991152721999999e+00 0.0000000000000000e+00 0.0000000000000000e+00 
-2.1495582026000002e+00 3.7231430390000000e+00 0.0000000000000000e+00 
-1.0000000000000000e-10 -1.0000000000000000e-10 2.9688248908100000e+01 
Bi Te 
6 9 
Cartesian
  -0.0000025272    2.4820966004    2.0053224607
  -0.0000025273    2.4820966004    7.8907506125
   4.2991152651    0.0000000122   11.9013955340
   0.0000000673    0.0000000120   17.7868533741
   2.1495595968    1.2410464385   21.7974982956
   2.1495595967    1.2410464385   27.6829264474
   2.1495595968    1.2410464386    3.7568697698
   0.0000000070    0.0000000122    0.0000010022
   0.0000001723    0.0000000120    6.1392033035
   2.1495595968    1.2410464386    9.8960730733
  -0.0000025273    2.4820966003   13.6529428431
   2.1495595968    1.2410464386   16.0353060650
   4.2991152650    0.0000000122   23.5490456046
  -0.0000025273    2.4820966003   19.7921758348
  -0.0000025273    2.4820966003   25.9313791383
