Bi6 Te9 
1.0
4.2991152721782617e+00 0.0000000000000000e+00 0.0000000000000000e+00
-2.1495582025952271e+00 3.7231430390215654e+00 0.0000000000000000e+00
-1.0501974991168250e-10 -1.3615057755713918e-10 2.9688248908126429e+01
Bi Te 
6 9 
Cartesian
-2.5272186993612984e-06 2.4820966003982128e+00 1.9913244513433130e+00
-2.5272186993612984e-06 2.4820966003982128e+00 7.9047634660229500e+00
1.5728761159864937e-08 3.6864283968433441e-08 1.1887412368807881e+01
2.3986360768794029e-08 3.2047350863224811e-08 1.7800836539272563e+01
2.1495595967412404e+00 1.2410464385527660e+00 2.1783485442057497e+01
2.1495595967412404e+00 1.2410464384544613e+00 2.7696939300853781e+01
2.1495595968395453e+00 1.2410464386510707e+00 3.7029559098134004e+00
2.4182970283292339e-08 4.1877826588140388e-08 1.8884343867562839e-07
1.6220284946110716e-08 3.8240550569921626e-08 6.1931171634362130e+00
-2.5273170041185475e-06 2.4820966002999083e+00 1.3599058671394618e+01
2.1495595967412404e+00 1.2410464385527660e+00 9.8960730732496138e+00
2.1495595967412404e+00 1.2410464385527660e+00 1.6089190236784130e+01
2.4871103584036431e-08 3.3128703192965520e-08 2.3495131744644230e+01
-2.5273170041185475e-06 2.4820966002999083e+00 1.9792175834830829e+01
-2.5273170041185475e-06 2.4820966002999083e+00 2.5985292998267045e+01
