Bi6 Te9 
1.0
4.3732525185000002e+00 0.0000000000000000e+00 0.0000000000000000e+00 
-2.1108798800000002e+00 3.7865902324000000e+00 0.0000000000000000e+00 
-1.0000000000000000e-10 -1.0000000000000000e-10 3.0200215878500000e+01 
Bi Te 
6 9 
Cartesian
   0.0630987241    2.5248112754    2.0254348583
   0.0378986095    2.5239744389    8.0412906811
   0.0125994124    0.0004177707   12.0921664378
   2.2497737123    3.7861737074   18.1080494407
   2.2244740289    1.2626157934   22.1589251974
   2.1992739143    1.2617789569   28.1747780002
   2.2384757900    1.2622182015    3.7664501235
   0.0000000074    0.0000000123    0.0000010195
   2.2357740622    3.7865675128    6.3003086361
   2.2118772137    1.2621954819   10.0667285594
   0.0770983743    2.5244174700   13.8331786829
   2.1852742641    1.2621727623   16.3670371956
   0.0265998843    0.0000231188   23.8999374426
   0.0504954247    2.5243947504   20.1334873191
   0.0238968484    2.5243720308   26.4337657550
