Bi6 Te9 
1.0
4.4868939691999996e+00 0.0000000000000000e+00 0.0000000000000000e+00 
-2.2434475758999999e+00 3.8857641609000000e+00 0.0000000000000000e+00 
-1.0000000000000000e-10 -1.0000000000000000e-10 3.0984985642100000e+01 
Bi Te 
6 9 
Cartesian
  -0.0000026377    2.5905107358    2.0451236968
  -0.0000026377    2.5905107358    8.2832162117
   4.4868938754    0.0000001623   12.3734512114
  -2.2434472451    3.8857641608   18.6115344307
   2.2434490309    1.2952534250   22.7017694304
   2.2434490309    1.2952534250   28.9398526498
   2.2434490309    1.2952534250    3.7564647343
   0.0000000062    0.0000000107    0.0000010378
  -0.0000000082    0.0000001565    6.5718844697
   2.2434490309    1.2952534250   10.3283182190
  -0.0000026377    2.5905107358   14.0847829534
   2.2434490309    1.2952534250   16.9002026887
   2.2434463932    3.8857641608   24.4131011724
  -0.0000026377    2.5905107358   20.6566674231
  -0.0000026377    2.5905107358   27.2285209078
