Bi6 Te9 
1.0
4.4868939692000893e+00 0.0000000000000000e+00 0.0000000000000000e+00
-2.2434475758502499e+00 3.8857641609109361e+00 0.0000000000000000e+00
-1.0960684994307616e-10 -1.4209742392757741e-10 3.0984985642055186e+01
Bi Te 
6 9 
Cartesian
-2.6376036982298716e-06 2.5905107358649571e+00 2.0783024194012598e+00
-2.6376036982298716e-06 2.5905107358649571e+00 8.2500312920618288e+00
1.6415769088096292e-08 3.8474458800225680e-08 1.2406636130966948e+01
2.5034047859346844e-08 3.3447129516996194e-08 1.8578349511040244e+01
2.2434490308904018e+00 1.2952534249723091e+00 2.2734954349945362e+01
2.2434490308904018e+00 1.2952534248697105e+00 2.8906698715090606e+01
2.2434490309930006e+00 1.2952534250749077e+00 3.8646952891628925e+00
2.5239244972948045e-08 4.3706985197056373e-08 1.9709182761395609e-07
1.6928761872099298e-08 3.9910838595434106e-08 6.4636229298155206e+00
-2.6377062967866718e-06 2.5905107357623591e+00 1.4193044493213256e+01
2.2434490308904018e+00 1.2952534249723091e+00 1.0328318218978414e+01
2.2434490308904018e+00 1.2952534249723091e+00 1.6791941148896534e+01
2.5957434870552261e-08 3.4575713641802809e-08 2.4521362712191667e+01
-2.6377062967866718e-06 2.5905107357623591e+00 2.0656667423028775e+01
-2.6377062967866718e-06 2.5905107357623591e+00 2.7120290352844297e+01
