Bi6 Te9 
1.0
4.3141472661000000e+00 0.0000000000000000e+00 0.0000000000000000e+00 
-2.1570742015000000e+00 3.7361611276000000e+00 0.0000000000000000e+00 
-1.0000000000000000e-10 -1.0000000000000000e-10 2.9792054818800001e+01 
Bi Te 
6 9 
Cartesian
  -0.0000025360    2.4907753304    2.0101563356
  -0.0000025361    2.4907753304    7.9205156941
   4.3141472590    0.0000000122   11.9408343237
   0.0000000743    0.0000000121   17.8512204951
   2.1570756006    1.2453857971   21.8715391247
   2.1570756005    1.2453857971   27.7818955040
   2.1570756006    1.2453857971    3.7603233672
   0.0000000070    0.0000000122    0.0000010057
   0.0000001804    0.0000000120    6.1703814338
   2.1570756006    1.2453857971    9.9306750089
  -0.0000025361    2.4907753304   13.6909983761
   2.1570756006    1.2453857971   16.1010564427
   4.3141472589    0.0000000123   23.6216733850
  -0.0000025361    2.4907753304   19.8613798099
  -0.0000025361    2.4907753304   26.0317314516
