Bi6 Te9 
1.0
4.3141472660624869e+00 0.0000000000000000e+00 0.0000000000000000e+00
-2.1570742015181463e+00 3.7361611275931499e+00 0.0000000000000000e+00
-1.0538695482210012e-10 -1.3662663240089212e-10 2.9792054818823537e+01
Bi Te 
6 9 
Cartesian
-2.5360552002755088e-06 2.4907753304519749e+00 1.9982871809002094e+00
-2.5360552002755088e-06 2.4907753304519749e+00 7.9324027239992310e+00
1.5783757275715008e-08 3.6993181114957049e-08 1.1928977085898300e+01
2.4070229845465387e-08 3.2159405449269330e-08 1.7863077732879095e+01
2.1570756005388358e+00 1.2453857970703412e+00 2.1859652094778163e+01
2.1570756005388358e+00 1.2453857969716928e+00 2.7793782533896760e+01
2.1570756006374845e+00 1.2453857971689897e+00 3.7159034134428310e+00
2.4267526811411824e-08 4.2024253746591209e-08 1.8950373579155331e-07
1.6276999690581102e-08 3.8374259876582112e-08 6.2147715954370311e+00
-2.5361538487584818e-06 2.4907753303533271e+00 1.3646608214460498e+01
2.1570756005388358e+00 1.2453857970703412e+00 9.9306750088798630e+00
2.1570756005388358e+00 1.2453857970703412e+00 1.6145446604415543e+01
2.4958066192224359e-08 3.3244538761974735e-08 2.3577283223340359e+01
-2.5361538487584818e-06 2.4907753303533271e+00 1.9861379809897528e+01
-2.5361538487584818e-06 2.4907753303533271e+00 2.6076151405334560e+01
