Bi6 Te9 
1.0
4.3950643869999997e+00 0.0000000000000000e+00 0.0000000000000000e+00 
-2.1975327726999998e+00 3.7873477777000000e+00 0.0000000000000000e+00 
-1.0000000000000000e-10 -1.0000000000000000e-10 3.0200215878500000e+01 
Bi Te 
6 9 
Cartesian
  -0.0000003866    2.5280697910    2.0243718107
  -0.0000003857    2.5217297708    8.0423778889
  -0.0000000950    0.0031704380   12.0911094302
   2.1975294172    3.7841777676   18.1091064483
   2.1975319999    1.2656180068   22.1578379896
   2.1975320008    1.2592779866   28.1758350077
   2.1975341969    1.2690910048    3.7616180890
   0.0000000072    0.0000000123    0.0000010195
   2.1975316153    3.7807047697    6.3051406707
   2.1975341979    1.2624479968   10.0667285594
  -0.0000025847    2.5315427889   13.8283466484
   2.1975341989    1.2558049887   16.3718692301
  -0.0000002077    0.0066427049   23.8950752078
  -0.0000025837    2.5248997808   20.1334873191
  -0.0000025827    2.5182567728   26.4385977895
