Bi6 Te9 
1.0
4.3732525185000002e+00 0.0000000000000000e+00 0.0000000000000000e+00 
-2.1866268354999998e+00 3.7873477777000000e+00 0.0000000000000000e+00 
-1.0000000000000000e-10 -3.0200215889999998e-01 3.0198705830000002e+01 
Bi Te 
6 9 
Cartesian
  -0.0000003857    2.5144522649    2.0251946700
  -0.0000003827    2.4346799207    8.0410396001
  -0.0000000890   -0.1111144828   12.0914410195
   2.1866234978    3.5964606318   18.1072648105
   2.1866260656    1.0506656981   22.1576662299
   2.1866260686    0.9708932633   28.1735202196
   2.1866260639    1.2463381977    3.7661712002
   0.0000000071    0.0000000064    0.0000010191
   2.1866256863    3.7027937765    6.3000842090
   2.1866282538    1.1617807112   10.0662252104
  -0.0000025741    2.4081189089   13.8323964106
   2.1866282570    1.0772267099   16.3663094194
  -0.0000002002   -0.2174466806   23.8986216210
  -0.0000025709    2.3235649076   20.1324806196
  -0.0000003810    2.2390074211   26.4325346298
