Bi6 Te9 
1.0
4.4167685406999997e+00 0.0000000000000000e+00 0.0000000000000000e+00 
-2.2083848524000000e+00 3.7873477777000000e+00 0.0000000000000000e+00 
-1.0000000000000000e-10 -1.0000000000000000e-10 3.0200215878500000e+01 
Bi Te 
6 9 
Cartesian
  -0.0000003890    2.5312663125    2.0230671614
   0.0000018213    2.5185294619    8.0436764982
  -0.0000000938    0.0063686146   12.0898108209
   2.2083836892    3.7809774587   18.1104050576
   2.2083818669    1.2688183157   22.1565393803
   2.2083840772    1.2560814651   28.1771638172
   2.2083840743    1.2756923520    3.7563632514
   0.0000000072    0.0000000123    0.0000010195
   2.2083858987    3.7741034225    6.3103955082
   2.2083862847    1.2624479968   10.0667285594
  -0.0000003901    2.5381441360   13.8230918108
   2.2083840783    1.2492036416   16.3771240677
  -0.0000002009    0.0132440142   23.8898203703
  -0.0000025965    2.5248997808   20.1334873191
  -0.0000003861    2.5116554256   26.4438828273
