Bi6 Te9 
1.0
4.3732525185000002e+00 0.0000000000000000e+00 0.0000000000000000e+00 
-2.1866268354999998e+00 3.7873477777000000e+00 0.0000000000000000e+00 
6.0400431750000005e-01 -1.0000000000000000e-10 3.0194175231199999e+01 
Bi Te 
6 9 
Cartesian
   0.0201554507    2.5262632261    2.0238400803
   0.1811786541    2.5235363357    8.0408900291
   4.5947453432    0.0013635664   12.0885701897
  -1.8041138383    3.7859843324   18.1056050415
   2.6094513464    1.2638114419   22.1532852021
   2.7704748518    1.2610845515   28.1703502480
   2.2178711393    1.2644439291    3.7643078261
   0.0000000260    0.0000000084    0.0000010167
  -2.0165363826    3.7853556327    6.3004373804
   2.3879628250    1.2624479968   10.0647150123
   0.2325770725    2.5268919258   13.8290228384
   2.5580529280    1.2604558518   16.3651523928
   4.8071661360    0.0019931788   23.8937378508
   0.4026671755    2.5248997808   20.1294602189
   0.5727588612    2.5229038485   26.4298674051
