Bi6 Te9 
1.0
4.3732525185000002e+00 0.0000000000000000e+00 0.0000000000000000e+00 
-2.1866268354999998e+00 3.7683634587000001e+00 0.0000000000000000e+00 
-1.0000000000000000e-10 -1.0000000000000000e-10 3.0200215878500000e+01 
Bi Te 
6 9 
Cartesian
   0.0000018020    2.5153034730    2.0269327890
  -0.0000003837    2.5091798824    8.0398108705
  -0.0000000902    0.0030629974   12.0936764485
   2.1866278700    3.7652997791   18.1065394300
   2.1866260666    1.2591835762   22.1604050080
   2.1866238809    1.2530599856   28.1732981896
   2.1866238795    1.2627522165    3.7719767630
   0.0000000071    0.0000000123    0.0000010195
   2.1866256840    3.7617311390    6.2947517964
   2.1866282538    1.2561198967   10.0667285594
  -0.0000003852    2.5188721132   13.8387355227
   2.1866260681    1.2494913454   16.3615105561
  -0.0000001979    0.0066305862   23.9054640821
  -0.0000025709    2.5122435619   20.1334873191
   0.0000018034    2.5056112421   26.4282391155
