Bi60
1.0
   3.0923565116539695    0.0000000000000000    0.0000000000000000
   0.0000000000000000    5.3561185933011348    0.0000000000000000
   0.0000000000000000    0.0000000000000000   83.2220570444766281
Bi Te
60
Direct
   0.0000000000000000    0.0000000000000000    0.0600802260550690 Bi
   0.5000000000000000    0.1666666666666667    0.0904195208098918 Bi
   0.5000000000000001    0.4999999999999999    0.0600802260550690 Bi
   0.0000000000000001    0.3333333333333334    0.1207588155647147 Bi
   0.0000000000000001    0.6666666666666666    0.0904195208098918 Bi
   0.5000000000000002    0.8333333333333334    0.1207588155647147 Bi
  -0.0000000000000000    0.0000000000000003    0.1510981103195375 Bi
   0.5000000000000000    0.1666666666666669    0.1814374050743603 Bi
   0.5000000000000001    0.5000000000000002    0.1510981103195375 Bi
   0.0000000000000000    0.3333333333333336    0.2117766998291832 Bi
   0.0000000000000001    0.6666666666666669    0.1814374050743603 Bi
   0.5000000000000002    0.8333333333333337    0.2117766998291831 Bi
  -0.0000000000000000    0.0000000000000005    0.2421159945840060 Bi
   0.5000000000000000    0.1666666666666672    0.2724552893388288 Bi
   0.5000000000000001    0.5000000000000004    0.2421159945840060 Bi
   0.0000000000000000    0.3333333333333339    0.3027945840936517 Bi
   0.0000000000000001    0.6666666666666672    0.2724552893388288 Bi
   0.5000000000000002    0.8333333333333339    0.3027945840936517 Bi
  -0.0000000000000000    0.0000000000000008    0.3331338788484745 Bi
   0.5000000000000000    0.1666666666666674    0.3634731736032973 Bi
   0.5000000000000001    0.5000000000000007    0.3331338788484745 Bi
   0.0000000000000000    0.3333333333333342    0.3938124683581202 Bi
   0.0000000000000001    0.6666666666666674    0.3634731736032973 Bi
   0.5000000000000002    0.8333333333333343    0.3938124683581202 Bi
  -0.0000000000000000    0.0000000000000010    0.4241517631129430 Bi
   0.5000000000000000    0.1666666666666677    0.4544910578677658 Bi
   0.5000000000000001    0.5000000000000009    0.4241517631129430 Bi
   0.0000000000000000    0.3333333333333344    0.4848303526225887 Bi
   0.0000000000000001    0.6666666666666676    0.4544910578677658 Bi
   0.5000000000000002    0.8333333333333344    0.4848303526225887 Bi
   0.7000000000000001    0.0000000000000013    0.5151696473774116 Bi
   0.2000000000000005    0.1666666666666680    0.5455089421322342 Bi
   0.2000000000000005    0.5000000000000012    0.5151696473774116 Bi
   0.7000000000000002    0.3333333333333347    0.5758482368870571 Bi
   0.7000000000000003    0.6666666666666680    0.5455089421322342 Bi
   0.2000000000000007    0.8333333333333347    0.5758482368870571 Bi
   0.7000000000000001    0.0000000000000015    0.6061875316418800 Bi
   0.2000000000000005    0.1666666666666682    0.6365268263967028 Bi
   0.2000000000000005    0.5000000000000016    0.6061875316418800 Bi
   0.7000000000000002    0.3333333333333349    0.6668661211515257 Bi
   0.7000000000000003    0.6666666666666682    0.6365268263967028 Bi
   0.2000000000000007    0.8333333333333349    0.6668661211515257 Bi
   0.7000000000000001    0.0000000000000018    0.6972054159063485 Bi
   0.2000000000000005    0.1666666666666685    0.7275447106611712 Bi
   0.2000000000000005    0.5000000000000018    0.6972054159063485 Bi
   0.7000000000000002    0.3333333333333352    0.7578840054159941 Bi
   0.7000000000000003    0.6666666666666685    0.7275447106611712 Bi
   0.2000000000000007    0.8333333333333353    0.7578840054159941 Bi
   0.7000000000000001    0.0000000000000021    0.7882233001708170 Bi
   0.2000000000000005    0.1666666666666688    0.8185625949256399 Bi
   0.2000000000000005    0.5000000000000020    0.7882233001708170 Bi
   0.7000000000000002    0.3333333333333355    0.8489018896804627 Bi
   0.7000000000000003    0.6666666666666687    0.8185625949256399 Bi
   0.2000000000000007    0.8333333333333354    0.8489018896804627 Bi
   0.7000000000000001    0.0000000000000023    0.8792411844352856 Bi
   0.2000000000000005    0.1666666666666690    0.9095804791901084 Bi
   0.2000000000000005    0.5000000000000022    0.8792411844352856 Bi
   0.7000000000000002    0.3333333333333357    0.9399197739449311 Bi
   0.7000000000000003    0.6666666666666690    0.9095804791901084 Bi
   0.2000000000000007    0.8333333333333357    0.9399197739449311 Bi
