Bi6 Te9 
1.0
4.3586261465999998e+00 0.0000000000000000e+00 0.0000000000000000e+00 
-2.1793136476999999e+00 3.7746809681000002e+00 0.0000000000000000e+00 
-1.0000000000000000e-10 -1.0000000000000000e-10 3.0099211057600002e+01 
Bi Te 
6 9 
Cartesian
  -0.0000025623    2.5164552370    2.0223148223
  -0.0000025623    2.5164552369    8.0107545269
   4.3586261394    0.0000000124   12.0553962112
   0.0000000964    0.0000000122   18.0438148464
   2.1793150611    1.2582257311   22.0884565307
   2.1793150611    1.2582257310   28.0769052651
   2.1793150611    1.2582257311    3.7662239820
   0.0000000071    0.0000000123    0.0000010160
   0.0000002038    0.0000000122    6.2668664367
   2.1793150611    1.2582257311   10.0330603195
  -0.0000025623    2.5164552369   13.7992843015
   2.1793150611    1.2582257311   16.2999267561
   4.3586261393    0.0000000124   23.8323446209
  -0.0000025623    2.5164552369   20.0661507381
  -0.0000025623    2.5164552369   26.3329870756
