Bi6 Te9 
1.0
4.3586261466173832e+00 0.0000000000000000e+00 0.0000000000000000e+00
-2.1793136476566972e+00 3.7746809680805922e+00 0.0000000000000000e+00
-1.0647349486964345e-10 -1.3803525368533042e-10 3.0099211057599970e+01
Bi Te 
6 9 
Cartesian
-2.5622019424651027e-06 2.5164552369502458e+00 2.0188895320375555e+00
-2.5622019424651027e-06 2.5164552369502458e+00 8.0141858369795429e+00
1.5946487894601542e-08 3.7374581002972362e-08 1.2051964901154321e+01
2.4318394039267352e-08 3.2490969085250646e-08 1.8047246156399027e+01
2.1793150611012972e+00 1.2582257310587823e+00 2.2085025220573804e+01
2.1793150611012972e+00 1.2582257309591167e+00 2.8080336575113407e+01
2.1793150612009629e+00 1.2582257311584479e+00 3.7542143967929440e+00
2.4517725137949870e-08 4.2457524019376603e-08 1.9145752028455976e-07
1.6444815641307838e-08 3.8769898693749997e-08 6.2788459226265383e+00
-2.5623016080144439e-06 2.5164552368505806e+00 1.3787304815507325e+01
2.1793150611012972e+00 1.2582257310587823e+00 1.0033060319419482e+01
2.1793150611012972e+00 1.2582257310587823e+00 1.6311906242145689e+01
2.5215383983338691e-08 3.3587290128004494e-08 2.3820365134926806e+01
-2.5623016080144439e-06 2.5164552368505806e+00 2.0066150738133860e+01
-2.5623016080144439e-06 2.5164552368505806e+00 2.6344996660760401e+01
