Bi6 Te9 
1.0
4.2687318167999999e+00 0.0000000000000000e+00 0.0000000000000000e+00 
-2.1343664708999999e+00 3.6968301948000000e+00 0.0000000000000000e+00 
-1.0000000000000000e-10 -1.0000000000000000e-10 2.9478430950600000e+01 
Bi Te 
6 9 
Cartesian
  -0.0000025094    2.4645546955    1.9945519079
  -0.0000025094    2.4645546955    7.8315937075
   4.2687318098    0.0000000121   11.8207034190
   0.0000000550    0.0000000120   17.6577275316
   2.1343678552    1.2322754992   21.6468372431
   2.1343678552    1.2322754992   27.4838908341
   2.1343678553    1.2322754993    3.7480351032
   0.0000000069    0.0000000121    0.0000009951
   0.0000001573    0.0000000119    6.0780987208
   2.1343678552    1.2322754993    9.8261338241
  -0.0000025094    2.4645546954   13.5741689273
   2.1343678552    1.2322754993   15.9042620233
   4.2687318097    0.0000000121   23.4003322298
  -0.0000025094    2.4645546954   19.6522971265
  -0.0000025095    2.4645546954   25.7303958474
