Bi6 Te9 
1.0
4.2687318168185948e+00 0.0000000000000000e+00 0.0000000000000000e+00
-2.1343664709116834e+00 3.6968301948287534e+00 0.0000000000000000e+00
-1.0427753606503952e-10 -1.3518835050959500e-10 2.9478430950640099e+01
Bi Te 
6 9 
Cartesian
-2.5093578997141995e-06 2.4645546954987032e+00 1.9772510167542128e+00
-2.5093578997141995e-06 2.4645546954987032e+00 7.8488975464806385e+00
1.5617600122696123e-08 3.6603750287569037e-08 1.1803399580086674e+01
2.3816840187111589e-08 3.1820860249993350e-08 1.7675031370507764e+01
2.1343678552047454e+00 1.2322754992599620e+00 2.1629533404113801e+01
2.1343678552047454e+00 1.2322754991623521e+00 2.7501194673047952e+01
2.1343678553023553e+00 1.2322754993575722e+00 3.6767857356120408e+00
2.4012060188645288e-08 4.1581860326678423e-08 1.8750881147312033e-07
1.6105650126530377e-08 3.7970290298304948e-08 6.1493480884150840e+00
-2.5094555097149663e-06 2.4645546954010937e+00 1.3502949038152227e+01
2.1343678552047454e+00 1.2322754992599620e+00 9.8261338240271243e+00
2.1343678552047454e+00 1.2322754992599620e+00 1.5975481912539820e+01
2.4695330194013247e-08 3.2894570258428706e-08 2.3329082862179352e+01
-2.5094555097149663e-06 2.4645546954010937e+00 1.9652297126567312e+01
-2.5094555097149663e-06 2.4645546954010937e+00 2.5801645214982397e+01
