Bi6 Te9 
1.0
4.4022152996999999e+00 0.0000000000000000e+00 0.0000000000000000e+00 
-2.2011082300000000e+00 3.8124302819999998e+00 0.0000000000000000e+00 
-1.0000000000000000e-10 -1.0000000000000000e-10 3.0400223137000001e+01 
Bi Te 
6 9 
Cartesian
  -0.0000025879    2.5416214588    2.0316773125
  -0.0000025879    2.5416214588    8.1017202665
   4.4022152924    0.0000000125   12.1650748914
   0.0000001146    0.0000000122   18.2351482456
   2.2011096575    1.2708088231   22.2985028705
   2.2011096575    1.2708088231   28.3685458245
   2.2011096576    1.2708088232    3.7666484471
   0.0000000072    0.0000000124    0.0000010262
   0.0000002173    0.0000000123    6.3667491318
   2.2011096575    1.2708088232   10.1333975789
  -0.0000025879    2.5416214588   13.9000764263
   2.2011096575    1.2708088231   16.5001467107
   4.4022152924    0.0000000125   24.0334740052
  -0.0000025879    2.5416214587   20.2668255581
  -0.0000025880    2.5416214587   26.6335746899
