Bi6 Te9 
1.0
4.4022152997366826e+00 0.0000000000000000e+00 0.0000000000000000e+00
-2.2011082299602083e+00 3.8124302820064635e+00 0.0000000000000000e+00
-1.0753830045628952e-10 -1.3941569779922187e-10 3.0400223136963106e+01
Bi Te 
6 9 
Cartesian
-2.5878256617371387e-06 2.5416214588172936e+00 2.0390797667543441e+00
-2.5878256617371387e-06 2.5416214588172936e+00 8.0943330122186339e+00
1.6105963352961809e-08 3.7748351608504238e-08 1.2172492545827984e+01
2.4561594113266759e-08 3.2815900331659683e-08 1.8227730591088033e+01
2.2011096575401923e+00 1.2708088231168906e+00 2.2305890124697388e+01
2.2011096575401923e+00 1.2708088230162282e+00 2.8361158570265253e+01
2.2011096576408544e+00 1.2708088232175530e+00 3.7917590314277558e+00
2.4762918655178779e-08 4.2882127427260813e-08 1.9337222250649773e-07
1.6609274707741865e-08 3.9157623401888395e-08 6.3416385474416446e+00
-2.5879263240080943e-06 2.5416214587166315e+00 1.3925187010604972e+01
2.2011096575401923e+00 1.2708088231168906e+00 1.0133397578869401e+01
2.2011096575401923e+00 1.2708088231168906e+00 1.6475036126411709e+01
2.5467554551870860e-08 3.3923185312175807e-08 2.4058584589474371e+01
-2.5879263240080943e-06 2.5416214587166315e+00 2.0266825558046616e+01
-2.5879263240080943e-06 2.5416214587166315e+00 2.6608464105488263e+01
