Bi6 Te9 
1.0
4.3732525185000002e+00 0.0000000000000000e+00 0.0000000000000000e+00 
-2.1866268354999998e+00 3.8062374100000000e+00 0.0000000000000000e+00 
-1.0000000000000000e-10 -1.0000000000000000e-10 3.0200215878500000e+01 
Bi Te 
6 9 
Cartesian
  -0.0000003837    2.5342537674    2.0243718107
   0.0000018019    2.5407281772    8.0423778889
   2.1866256834    3.8030021082   12.0911094302
   0.0000001022    0.0032371706   18.1091064483
   2.1866238810    1.2655092327   22.1578379896
   2.1866260666    1.2719836425   28.1758350077
   2.1866260682    1.2620722004    3.7616180890
   0.0000000071    0.0000000124    0.0000010195
   0.0000002133    0.0066745037    6.3051406707
   2.1866282538    1.2687445346   10.0667285594
   0.0000018034    2.5308167349   13.8283466484
   2.1866282527    1.2754206750   16.3718692301
   2.1866256839    3.7995612695   23.8950752078
  -0.0000025709    2.5374928753   20.1334873191
  -0.0000003853    2.5441652095   26.4385977895
