Bi6 Te9 
1.0
4.2839774170000000e+00 0.0000000000000000e+00 0.0000000000000000e+00 
-2.1419892730000001e+00 3.7100332719000000e+00 0.0000000000000000e+00 
-1.0000000000000000e-10 -1.0000000000000000e-10 2.9583711954799998e+01 
Bi Te 
6 9 
Cartesian
  -0.0000025183    2.4733567513    2.0001103897
  -0.0000025183    2.4733567513    7.8611318592
   4.2839774100    0.0000000121   11.8613526386
   0.0000000609    0.0000000120   17.7223593162
   2.1419906622    1.2366765205   21.7225800956
   2.1419906622    1.2366765205   27.5836163570
   2.1419906623    1.2366765206    3.7527530289
   0.0000000070    0.0000000121    0.0000009987
   0.0000001646    0.0000000119    6.1084744281
   2.1419906623    1.2366765206    9.8612274570
  -0.0000025184    2.4733567512   13.6139804859
   2.1419906623    1.2366765206   15.9697314689
   4.2839774099    0.0000000121   23.4752375267
  -0.0000025184    2.4733567512   19.7224844978
  -0.0000025184    2.4733567512   25.8309589259
