Bi6 Te9 
1.0
4.2839774170022773e+00 0.0000000000000000e+00 0.0000000000000000e+00
-2.1419892730124785e+00 3.7100332718820521e+00 0.0000000000000000e+00
-1.0464995899794045e-10 -1.3567117014545043e-10 2.9583711954835550e+01
Bi Te 
6 9 
Cartesian
-2.5183199682859656e-06 2.4733567512686045e+00 1.9843126874699617e+00
-2.5183199682859656e-06 2.4733567512686045e+00 7.8769295613766950e+00
1.5673377739448985e-08 3.6734479076833552e-08 1.1845554936414578e+01
2.3901901052659700e-08 3.1934507144127307e-08 1.7738157018375151e+01
2.1419906622494866e+00 1.2366765205431089e+00 2.1706782393413036e+01
2.1419906622494866e+00 1.2366765204451504e+00 2.7599414059167966e+01
2.1419906623474452e+00 1.2366765206410677e+00 3.6899172247033332e+00
2.4097818274402812e-08 4.1730368231282917e-08 1.8817849148425936e-07
1.6163170793806765e-08 3.8105899629035341e-08 6.1713102322951228e+00
-2.5184179268968367e-06 2.4733567511706465e+00 1.3551174265496149e+01
2.1419906622494866e+00 1.2366765205431089e+00 9.8612274569984564e+00
2.1419906622494866e+00 1.2366765205431089e+00 1.6032537689391539e+01
2.4783528550503707e-08 3.3012051863714419e-08 2.3412401722494604e+01
-2.5184179268968367e-06 2.4733567511706465e+00 1.9722484497791271e+01
-2.5184179268968367e-06 2.4733567511706465e+00 2.5893794730086395e+01
