Bi6 Te9                                 
   1.00000000000000     
     4.3851711428212239    0.0000000000000001   -0.0000000000000000
    -2.1925855714106119    3.7976696095992244   -0.0000000000000000
    -0.0000000000000004   -0.0000000000000000   30.2840157629311726
   Bi   Te
     6     9
Direct
  0.3333333429999996  0.6666666870000029  0.2665287469294987
  0.3333333429999996  0.6666666870000029  0.0668045970704975
 -0.0000000000000000  0.0000000000000000  0.5998620599295026
  0.0000000000000000 -0.0000000000000000  0.4001379400704971
  0.6666666870000029  0.3333333429999996  0.9331954329294976
  0.6666666870000029  0.3333333429999996  0.7334712530705016
  0.6666666870000029  0.3333333429999996  0.1240841952622592
  0.0000000000000000  0.0000000000000000  0.0000000000000000
 -0.0000000000000000  0.0000000000000000  0.2092491327377427
  0.3333333429999996  0.6666666870000029  0.4574175392622553
  0.6666666870000029  0.3333333429999996  0.3333333429999996
  0.6666666870000029  0.3333333429999996  0.5425824907377401
  0.0000000000000000 -0.0000000000000000  0.7907508822622549
  0.3333333429999996  0.6666666870000029  0.6666666870000029
  0.3333333429999996  0.6666666870000029  0.8759158047377409
 
  0.00000000E+00  0.00000000E+00  0.00000000E+00
  0.00000000E+00  0.00000000E+00  0.00000000E+00
  0.00000000E+00  0.00000000E+00  0.00000000E+00
  0.00000000E+00  0.00000000E+00  0.00000000E+00
  0.00000000E+00  0.00000000E+00  0.00000000E+00
  0.00000000E+00  0.00000000E+00  0.00000000E+00
  0.00000000E+00  0.00000000E+00  0.00000000E+00
  0.00000000E+00  0.00000000E+00  0.00000000E+00
  0.00000000E+00  0.00000000E+00  0.00000000E+00
  0.00000000E+00  0.00000000E+00  0.00000000E+00
  0.00000000E+00  0.00000000E+00  0.00000000E+00
  0.00000000E+00  0.00000000E+00  0.00000000E+00
  0.00000000E+00  0.00000000E+00  0.00000000E+00
  0.00000000E+00  0.00000000E+00  0.00000000E+00
  0.00000000E+00  0.00000000E+00  0.00000000E+00
