Bi6 Te9 
1.0
4.2533765337000000e+00 0.0000000000000000e+00 0.0000000000000000e+00 
-2.1266888273000002e+00 3.6835321296000001e+00 0.0000000000000000e+00 
-1.0000000000000000e-10 -1.0000000000000000e-10 2.9372392512899999e+01 
Bi Te 
6 9 
Cartesian
  -0.0000025003    2.4556893142    1.9886813330
  -0.0000025003    2.4556893142    7.8021298784
   4.2533765267    0.0000000120   11.7794749210
   0.0000000496    0.0000000119   17.5929175919
   2.1266902066    1.2278428153   21.5702626345
   2.1266902066    1.2278428153   27.3837053054
   2.1266902067    1.2278428153    3.7428064883
   0.0000000069    0.0000000120    0.0000009915
   0.0000001507    0.0000000119    6.0480105975
   2.1266902067    1.2278428153    9.7907877135
  -0.0000025004    2.4556893142   13.5335942019
   2.1266902067    1.2278428153   15.8387983110
   4.2533765266    0.0000000120   23.3243819154
  -0.0000025004    2.4556893142   19.5816047994
  -0.0000025004    2.4556893142   25.6295860246
