Bi6 Te9 
1.0
4.2533765337010871e+00 0.0000000000000000e+00 0.0000000000000000e+00
-2.1266888273295219e+00 3.6835321295684125e+00 0.0000000000000000e+00
-1.0390243377288658e-10 -1.3470205727653574e-10 2.9372392512871869e+01
Bi Te 
6 9 
Cartesian
-2.5003313544434349e-06 2.4556893142257774e+00 1.9701385415602877e+00
-2.5003313544434349e-06 2.4556893142257774e+00 7.8206638580789285e+00
1.5561421219501698e-08 3.6472080983207095e-08 1.1760940941296763e+01
2.3731167359740087e-08 3.1706395734734705e-08 1.7611451571529610e+01
2.1266902066430697e+00 1.2278428152727991e+00 2.1551728654747446e+01
2.1266902066430697e+00 1.2278428151755403e+00 2.7402268657454620e+01
2.1266902067403288e+00 1.2278428153700580e+00 3.6635597733460830e+00
2.3925685124983858e-08 4.1432283996923267e-08 1.8683431351664225e-07
1.6047715632611124e-08 3.7833705339913496e-08 6.1272279401045981e+00
-2.5004286133260566e-06 2.4556893141285192e+00 1.3454376859271092e+01
2.1266902066430697e+00 1.2278428152727991e+00 9.7907877134506816e+00
2.1266902066430697e+00 1.2278428152727991e+00 1.5918015653652539e+01
2.4606497303337058e-08 3.2776243443575448e-08 2.3245164572721773e+01
-2.5004286133260566e-06 2.4556893141285192e+00 1.9581604799375690e+01
-2.5004286133260566e-06 2.4556893141285192e+00 2.5708832739480290e+01
