Bi60 
1.0
3.0923565116999998e+00 0.0000000000000000e+00 0.0000000000000000e+00 
0.0000000000000000e+00 5.3561185932999997e+00 0.0000000000000000e+00 
0.0000000000000000e+00 0.0000000000000000e+00 8.3222057044500005e+01 
Bi 
60 
Cartesian
   0.0000000000    0.0000000000    6.9585540443
   1.5461782558    2.6780592966    6.9585540443
   1.5461782558    0.8926882176    9.0153622176
   0.0000000000    1.7853710791   10.9190667725
   0.0000000000    3.5707475142    9.0153622176
   1.5461782558    4.4634303757   10.9190667725
   0.0000000000    0.0000000000   12.8161135628
   1.5461782558    0.8926882176   14.8867615641
   1.5461782558    2.6780592966   12.8161135628
   0.0000000000    3.5707475142   14.8867615641
   0.0000000000    1.7853710791   19.6919199158
   1.5461782558    4.4634303757   19.6919199158
   0.0000000000    0.0000000000   21.7618189186
   1.5461782558    2.6780592966   21.7618189186
   1.5461782558    0.8926882176   23.6550374943
   0.0000000000    1.7853710791   25.5483392921
   0.0000000000    3.5707475142   23.6550374943
   1.5461782558    4.4634303757   25.5483392921
   0.0000000000    0.0000000000   27.6183215170
   1.5461782558    0.8926882176   32.4397081698
   1.5461782558    2.6780592966   27.6183215170
   0.0000000000    3.5707475142   32.4397081698
   0.0000000000    1.7853710791   34.5300797986
   1.5461782558    4.4634303757   34.5300797986
   0.0000000000    0.0000000000   36.4653255131
   1.5461782558    2.6780592966   36.4653255131
   1.5461782558    0.8926882176   38.4218760742
   0.0000000000    1.7853710791   40.4378471841
   0.0000000000    3.5707475142   38.4218760742
   1.5461782558    4.4634303757   40.4378471841
   1.2369426047    0.0000000000   42.7842098604
   2.7831208605    0.8926882176   44.8001809703
   2.7831208605    2.6780592966   42.7842098604
   1.2369426047    3.5707475142   44.8001809703
   1.2369426047    1.7853710791   46.7567315314
   2.7831208605    4.4634303757   46.7567315314
   1.2369426047    0.0000000000   48.6919772459
   2.7831208605    2.6780592966   48.6919772459
   2.7831208605    0.8926882176   50.7823488747
   1.2369426047    1.7853710791   55.6037355275
   1.2369426047    3.5707475142   50.7823488747
   2.7831208605    4.4634303757   55.6037355275
   1.2369426047    0.0000000000   57.6737177524
   2.7831208605    0.8926882176   59.5670195502
   2.7831208605    2.6780592966   57.6737177524
   1.2369426047    3.5707475142   59.5670195502
   1.2369426047    1.7853710791   61.4602381259
   2.7831208605    4.4634303757   61.4602381259
   1.2369426047    0.0000000000   63.5301371287
   2.7831208605    2.6780592966   63.5301371287
   2.7831208605    0.8926882176   68.3352954804
   1.2369426047    1.7853710791   70.4059434817
   1.2369426047    3.5707475142   68.3352954804
   2.7831208605    4.4634303757   70.4059434817
   1.2369426047    0.0000000000   72.3029902720
   2.7831208605    0.8926882176   74.2066948269
   2.7831208605    2.6780592966   72.3029902720
   1.2369426047    3.5707475142   74.2066948269
   1.2369426047    1.7853710791   76.2635279668
   2.7831208605    4.4634303757   76.2635279668
