Bi6 Te9 
1.0
4.3732525185000002e+00 0.0000000000000000e+00 0.0000000000000000e+00 
-2.1866268354999998e+00 3.7873477777000000e+00 0.0000000000000000e+00 
-3.0200215889999998e-01 -1.0000000000000000e-10 3.0198705830000002e+01 
Bi Te 
6 9 
Cartesian
  -0.0101009285    2.5252482169    2.0252037296
  -0.0905673067    2.5245513449    8.0410396001
  -0.1107681924    0.0003490060   12.0914410195
   1.9953892882    3.7869993416   18.1072648105
   1.9751908308    1.2627964327   22.1576662299
   1.8947242714    1.2620995607   28.1735202196
   2.1710211575    1.2629592887    3.7661712002
  -0.0000000031    0.0000000123    0.0000010194
   2.1015654936    3.7868364857    6.3000540103
   2.0859609682    1.2624479968   10.0662252104
  -0.1162750680    2.5254072855   13.8324266093
   2.0008985921    1.2619404921   16.3662792207
  -0.2169409615    0.0005095459   23.8986518197
  -0.2013374441    2.5248997808   20.1324806196
  -0.2863976334    2.5243884889   26.4325346298
