Bi6 Te9 
1.0
4.3732525185000002e+00 0.0000000000000000e+00 0.0000000000000000e+00 
-2.1487533577000000e+00 3.7871584055000000e+00 0.0000000000000000e+00 
-1.0000000000000000e-10 -1.0000000000000000e-10 3.0200215878500000e+01 
Bi Te 
6 9 
Cartesian
   0.0315558664    2.5248757860    2.0256069995
   0.0189435097    2.5246674923    8.0411396800
   0.0063048607    0.0001053129   12.0923476390
   2.2181962434    3.7870523650   18.1078682395
   2.2055556510    1.2624909131   22.1590761985
   2.1929432943    1.2622826194   28.1745967989
   2.2125649902    1.2623924471    3.7667219254
   4.3732525120    0.0000000114    0.0000009942
   2.2111869044    3.7871508312    6.3000066340
   2.1992527337    1.2623848727   10.0667285594
   0.0385652054    2.5247773198   13.8334806851
   2.1859339553    1.2623810856   16.3667351934
   0.0133140953    0.0000066455   23.9002092445
   0.0252464270    2.5247735327   20.1334873191
   0.0119341705    2.5247659583   26.4334939531
