Bi162 Te242 
1.0
1.3114991749507968e+01 0.0000000000000000e+00 0.0000000000000000e+00 
-6.5574987129905002e+00 1.1357917946716153e+01 0.0000000000000000e+00 
-2.9998027666329929e-10 -3.9997370221773244e-10 9.0594691145337947e+01 
Bi Te 
162 242 
Cartesian
   0.0000059423    2.4619309362    2.0141374114
   4.3785114963    2.5279658711    2.0358076615
   8.7365052197    2.5279658711    2.0358257805
  -4.4254728866   10.1269240838    2.0142008277
  -2.1938118206    6.3053481481    2.0033385242
   0.0000040323   10.1051963868    2.0032660485
   2.1938021117    6.3053595060    2.0033294648
   4.4255137278   10.1269127259    2.0142098872
   6.5575139724    6.3019975623    2.0358257805
  -0.0000203032    2.5238770207    8.0426614795
   4.3698883905    2.5229570293    8.0362292565
   8.7449906206    2.5230138189    8.0361748996
  -4.3717866602   10.0959737574    8.0426433606
  -2.1801394436    6.3132419011    8.0165158517
  -0.0000221938   10.0893634491    8.0164977327
   2.1801231734    6.3132419011    8.0164886733
   4.3717160394   10.0959964732    8.0426705390
   6.5574811824    6.3119357405    8.0362020780
  -2.1844964393    3.7887515528   12.0867813138
   2.1844189640    3.7886606894   12.0868719085
   6.5574883711    3.7859688629   12.0769970872
  -2.1842260236   11.3553283414   12.0868719085
  -4.3686362019    7.5718014308   12.0867813138
  -0.0000084497    7.5719490837   12.0878684501
   6.5573946740   11.3579065887   12.0933041316
   2.1840629684   11.3553964889   12.0868719085
   4.3685625146    7.5717332833   12.0868719085
   4.3717690614    0.0004917864   18.1048960519
   2.1863075235    3.7858893574   18.1048960519
   6.5573834512    3.7859688629   18.1046242679
  10.9285249538    3.7859802208   18.1048960519
   8.7429896645    0.0004570016   18.1048960519
  -0.0000740247    7.5719490837   18.1062549723
   6.5574077890   11.3579065887   18.1038995103
   4.3719068376    7.5714834091   18.1048960519
   8.7429762078    7.5715515566   18.1048960519
  -0.0000865089    5.0478108309   22.1571965869
   2.1856589621    1.2618533259   22.1571059922
   4.3717238583    5.0478903363   22.1575589656
  10.9290632992    1.2620464105   22.1569248028
   8.7431866783    5.0478903363   22.1575589656
   6.5575349043    1.2620918421   22.1575589656
  -2.1860614924    8.8340295680   22.1571059922
   2.1859259272    8.8340522838   22.1571965869
   6.5574608797    8.8340182101   22.1570153975
  -0.0000143765    5.0479584838   28.1723217002
   2.1859147044    1.2619782629   28.1723217002
   4.3716582833    5.0479811996   28.1723217002
  10.9292469091    1.2619555471   28.1724122948
   8.7433702881    5.0479811996   28.1723217002
   6.5575152318    1.2619896209   28.1723217002
  -2.1858385375    8.8339387046   28.1723217002
   2.1857882198    8.8339273467   28.1723217002
   6.5575395696    8.8339500626   28.1724122948
   0.0000649441    2.5239792418   32.2239880722
   4.3716654715    2.5239678839   32.2239880722
   8.7432987864    2.5239905997   32.2239880722
  -4.3715505904   10.0959056098   32.2239880722
  -2.1858182343    6.3099481047   32.2239880722
   0.0000105920   10.0959169677   32.2239880722
   2.1858347530    6.3099594627   32.2239880722
   4.3717291543   10.0959510414   32.2239880722
   6.5575205278    6.3099594627   32.2239880722
   0.0000715016    2.5239451680   38.2385696174
   4.3715998965    2.5239678839   38.2385696174
   8.7433971488    2.5240246735   38.2384790227
  -4.3716686253   10.0958828939   38.2386602121
  -2.1858182344    6.3099708206   38.2385696174
  -0.0000812130   10.0959169677   38.2384790227
   2.1858478680    6.3099140310   38.2384790227
   4.3717619418   10.0959851152   38.2384790227
   6.5574680678    6.3099821785   38.2385696174
  -2.1858231420    3.7859915786   42.2900548001
   2.1858288262    3.7859007152   42.2900548001
   8.7431725198    0.0000494236   42.2900548001
   6.5575014860    3.7860142944   42.2901453948
  -2.1857473633   11.3578725149   42.2900548001
  -4.3717064750    7.5720399469   42.2901453948
  -0.0000805822    7.5718695782   42.2900548001
   6.5569487642   11.3579065886   42.2901453948
   4.3716642100    7.5719263678   42.2901453948
   0.0005430763    0.0000301816   48.3046363452
   2.1857370212    3.7859688627   48.3046363452
   6.5574752560    3.7861505894   48.3046363452
  10.9291151284    3.7857984940   48.3045457505
   8.7434489547    0.0000022250   48.3046363452
  -2.1865145904   11.3578838727   48.3046363452
  -0.0000609098    7.5718582202   48.3045457505
   4.3715855200    7.5720399469   48.3046363452
   8.7433303124    7.5719377257   48.3045457505
  -0.0000078191    5.0479016941   52.3561215279
   2.1857835544    1.2620691262   52.3560309333
   4.3716058232    5.0480039154   52.3561215279
   6.5573381793    1.2620009787   52.3562121226
  10.9291878916    1.2618987574   52.3563027173
   8.7432850406    5.0479925574   52.3562121226
  -2.1859369000    8.8338819149   52.3562121226
   2.1858669097    8.8339046308   52.3562121226
   6.5574149771    8.8340295679   52.3560309333
   2.1859212618    1.2620577682   58.3707030731
   0.0000643133    5.0479811995   58.3707030731
   4.3717107432    5.0479357678   58.3707030731
  10.9293715014    1.2619896207   58.3707030731
   8.7433571730    5.0479584837   58.3707030731
   6.5575349042    1.2619328311   58.3707936678
  -2.1858516526    8.8339387045   58.3707030731
   2.1859062547    8.8339046307   58.3707030731
   6.5575657995    8.8339500624   58.3707030731
   0.0000977315    2.5239451679   62.4222788505
   4.3716720289    2.5239792417   62.4223694452
   8.7434102637    2.5240019575   62.4223694452
  -4.3715899355   10.0958828938   62.4223694452
  -2.1858116769    6.3099594625   62.4223694452
   0.0000564944   10.0960191888   62.4222788505
   2.1858872129    6.3099367467   62.4223694452
   4.3718996491   10.0959283255   62.4222788505
   6.5575402002    6.3099253888   62.4223694452
   0.0000059266    2.5238543046   68.4377663425
   4.3714556315    2.5238997362   68.4374945585
   8.7434627237    2.5239110941   68.4374945585
  -4.3716292805   10.0959964729   68.4376757478
  -2.1857461020    6.3100048942   68.4371321797
   0.0001876443   10.0958601779   68.4370415850
   2.1857495054    6.3099708204   68.4371321797
   4.3719521091   10.0959056096   68.4377663425
   6.5575074127    6.3101866209   68.4374945585
  -2.1855778933    3.7864231793   72.4897950934
   2.1855337387    3.7863663897   72.4897950934
   6.5574949284    3.7859802205   72.4884361730
  13.1139912114    0.0000065788   72.4907916350
  -2.1857867083   11.3574409138   72.4897950934
  -4.3711483539    7.5720513047   72.4897950934
  -0.0000412374    7.5718922939   72.4901574722
   2.1855843067   11.3574636297   72.4897950934
   4.3711855127    7.5719604414   72.4897950934
   0.0000631419    0.0000075151   78.5013870137
   4.3733599748    0.0025292830   78.5079098315
   2.1888190441    3.7862187368   78.5079098315
   6.5573834510    3.7859688626   78.5068226952
  10.9260396627    3.7860824418   78.5078192368
   8.7416576947    0.0025823132   78.5078192368
  -0.0000543524    7.5719377255   78.5176940581
   4.3729822673    7.5692572569   78.5079098315
   8.7418811064    7.5691550356   78.5078192368
  -0.0000406062    5.0459822058   82.5584890673
   2.1856065019    1.2619214731   82.5520568442
   4.3772911729    5.0446533294   82.5781481153
   6.5573971950    1.2685544972   82.5782387100
  10.9291157590    1.2619555469   82.5519662495
   8.7375603474    5.0447101190   82.5781481153
  -2.1875762744    8.8349041274   82.5584890673
   2.1875193983    8.8349495591   82.5584890673
   6.5573559595    8.8340409257   82.5520568442
  -0.0000209362    5.0559203840   88.5588472459
   2.1320055384    1.2310052204   88.5804993771
   4.3637040395    5.0525584403   88.5913707400
  10.9829921528    1.2309938625   88.5804993771
   8.7513048568    5.0525697982   88.5913707400
   6.5575283489    1.2527215595   88.5914613347
  -2.1790056260    8.8299634331   88.5588472459
   2.1789880974    8.8299407173   88.5589378406
   6.5574805364    8.8959983680   88.5805899718
   2.1847540279    1.2613762934    3.7817213709
   0.0000053135    4.9780050673    3.7046162293
   4.3653302990    5.0516043756    3.7680778104
   6.5574890037    1.2546978376    3.7680687509
  10.9302633212    1.2613762934    3.7817213709
   8.7496654833    5.0515930176    3.7681140483
   6.5575146012    3.7859461471    0.0114049657
  -2.2463314456    8.8689551658    3.7045981103
   2.2053223694   11.3579179467    0.0000121938
   2.2463466856    8.8689438079    3.7045981103
   4.3813168399    7.5886225073    0.0000137373
   6.5575198969    8.8350972124    3.7817847872
   4.3619834740    0.0014262592    6.2878241931
   2.1822156484    3.7768938865    6.2878060742
   2.1857442096    1.2619555472   10.0660667278
   0.0000052945    5.0540576858   10.0561013118
   4.3653499714    5.0515703018   10.0555577437
   6.5574096812    3.7859688629    6.2975359440
   6.5574365437    1.2547432693   10.0555577437
  10.9327348685    3.7768938865    6.2878060742
   8.7529579525    0.0014322334    6.2877788958
  10.9290960867    1.2620123368   10.0660667278
   8.7495671209    5.0516043755   10.0554671490
  -2.1805663100    8.8308947827   10.0561013118
   6.5568110569   11.3579179467    6.3034245989
   0.0000046653    7.5719490838    6.2588157730
   4.3777167769    7.5796156784    6.2877970147
   2.1805225515    8.8308947827   10.0561013118
   6.5574412072    8.8339387047   10.0660667278
   8.7372515119    7.5795816046    6.2878332526
  -0.0000596488    2.5263303309   13.8310009025
   4.3735802601    2.5250809599   13.8238439219
   8.7413708824    2.5251263916   13.8238439219
  -4.3697341637   10.0947811760   13.8310009025
  -2.1850706799    6.3104478532   13.8316350653
  -0.0000615402   10.0950196922   13.8316350653
   2.1850085085    6.3103683478   13.8316350653
   4.3695127211   10.0947243864   13.8310009025
   6.5574877410    6.3077219529   13.8238439219
  -0.0000668365    5.0483446530   16.3641190616
  -0.0000268607    2.5238202310   20.1307745353
   2.1863802866    1.2623530743   16.3625789518
   4.3718877957    5.0478108309   16.3623071678
   6.5574955592    1.2623644322   16.3623071678
   4.3717638340    2.5240701052   20.1314086982
  10.9283550896    1.2624098639   16.3623071678
   8.7429178210    5.0477426834   16.3623071678
   8.7430102565    2.5241268948   20.1313181035
  -2.1855500076    8.8337569780   16.3640284669
  -4.3719046952   10.0960419048   20.1307745353
  -2.1862379140    6.3097209464   20.1314992929
  -0.0000221955   10.0963372107   20.1314992929
   2.1854472301    8.8337229042   16.3641190616
   6.5574215349    8.8331550084   16.3623977625
   2.1861363979    6.3097550202   20.1314992929
   4.3717553843   10.0959964732   20.1307745353
   6.5574287230    6.3097095885   20.1314086982
   0.0004933833    0.0000090635   23.8989701188
   4.3720610794    0.0000087123   23.8991513082
   2.1856845614    3.7857871361   23.8991513082
   6.5574424686    3.7860029366   23.8996042817
  10.9291807035    3.7858212099   23.8991513082
   8.7425136450    0.0000094051   23.8991513082
  -0.0000150072    7.5719377258   23.8988795241
   4.3717035550    7.5720399470   23.8991513082
   8.7431598175    7.5721421683   23.8991513082
  -0.0000334183    2.5239224522   26.4306387629
  -2.1857894709    3.7859802207   30.1982001835
   4.3716785865    2.5240133156   26.4306387629
   2.1858419412    3.7859915786   30.1982001835
   8.7434561663    2.5239451681   26.4305481682
  13.1142962474    0.0000007056   30.1982001835
   6.5575277161    3.7859688628   30.1982001835
  -4.3716948553   10.0959510415   26.4305481682
  -2.1858313493    6.3099481048   26.4305481682
  -2.1856096559   11.3579065887   30.1982001835
  -4.3716134438    7.5719490837   30.1982001835
   0.0000368220   10.0959169677   26.4305481682
   2.1858085230    6.3099821785   26.4305481682
   4.3716635794   10.0959283256   26.4306387629
   2.1859843140   11.3579065887   30.1982001835
   0.0000177802    7.5719490837   30.1982001835
   4.3716642101    7.5719490837   30.1982001835
   6.5575336428    6.3099821785   26.4306387629
   2.1858622444    1.2620236946   33.9657616042
   0.0000643134    5.0479584838   33.9657616042
   4.3716582833    5.0479811996   33.9657616042
   6.5574955593    1.2619782629   33.9657616042
  10.9291944491    1.2619782629   33.9657616042
   8.7433243856    5.0479471258   33.9657616042
  -2.1857729626    8.8338932729   33.9657616042
   2.1859193697    8.8339500625   33.9657616042
   6.5574805521    8.8339614204   33.9657616042
  -2.1858279196    3.7859802207   36.4967054907
   4.3713444076    0.0000006534   36.4967960854
   2.1858747287    3.7859802207   36.4967960854
   0.0000118534    5.0479811996   40.2642669114
   8.7439682035    0.0000114931   36.4967960854
   6.5575080435    3.7859575049   36.4967960854
   8.7433047131    5.0479584837   40.2642669114
   6.5575152317    1.2620123366   40.2642669114
  -6.5561744006   11.3579065886   36.4967960854
   0.0000112227    7.5719604415   36.4967960854
   4.3716510951    7.5719945153   36.4967960854
   2.1857882198    8.8339500625   40.2642669114
   8.7432975249    7.5718809361   36.4967960854
  -0.0000334184    2.5240133155   44.0318283321
   2.1859015894    1.2619782629   40.2643575061
   4.3716648408    5.0479471258   40.2643575061
   4.3716851440    2.5239338101   44.0318283321
  10.9290895291    1.2619782629   40.2643575061
   8.7433250163    2.5239905997   44.0318283321
  -2.1857991926    8.8339387046   40.2642669114
  -4.3715309180   10.0959851151   44.0316471427
  -2.1858706943    6.3099708205   44.0318283321
   6.5574280921    8.8339159887   40.2643575061
   0.0000302645   10.0957920305   44.0321001161
   2.1857560630    6.3099594626   44.0318283321
   4.3715193144   10.0959964731   44.0317377374
   6.5574942978    6.3099367468   44.0318283321
  -0.0001258540    5.0479698416   46.5628628133
   2.1859540493    1.2619782629   46.5627722186
   4.3716189383    5.0479130520   46.5628628133
   6.5573840818    1.2621032000   46.5625910292
   4.3716785864    2.5240133155   50.3303336392
  10.9290829716    1.2618987574   46.5632251920
   8.7433309431    5.0480039154   46.5628628133
  -2.1858450951    8.8339273466   46.5628628133
  -4.3715768204   10.0959056097   50.3303336392
   2.1857423173    8.8339614204   46.5628628133
   6.5574871096    8.8339046308   46.5628628133
   6.5574877403    6.3099481047   50.3303336392
  -0.0001055508    2.5239792417   50.3304242339
   2.1858484986    3.7860029364   54.0978950599
   6.5574621410    3.7859234310   54.0978950599
  10.9290954559    3.7859915785   54.0979856546
  13.1139405096    0.0000035338   54.0978950599
   8.7406829733    0.0000000047   54.0979856546
   8.7432397688    2.5239565259   50.3304242339
  -2.1865211479   11.3579179465   54.0978950599
  -2.1858641369    6.3099594626   50.3304242339
  -0.0001074430   10.0958942518   50.3304242339
  -0.0000805823    7.5719150098   54.0979856546
   4.3716576525    7.5720285890   54.0978950599
   2.1857626205    6.3099481047   50.3304242339
   4.3715389869   10.0959851151   50.3304242339
   8.7432778524    7.5718922940   54.0978950599
   0.0000452716    2.5240360313   56.6288389464
   4.3718556388    2.5239792417   56.6289295411
   8.7433971487    2.5239338100   56.6290201358
  -4.3716358379   10.0958942517   56.6289295411
  -2.1858379069    6.3099594626   56.6289295411
  -0.0000090806   10.0959283255   56.6289295411
   2.1858937704    6.3099481046   56.6289295411
   4.3717488267   10.0959623992   56.6289295411
   6.5575467577    6.3099594626   56.6289295411
  -2.1857650405    3.7859688627   60.3964909618
   2.1858425718    1.2619896207   64.1641429771
   0.0000446408    5.0479244099   64.1640523825
   4.3716779557    5.0479698415   64.1641429771
   4.3721793969    0.0000082225   60.3964909618
   2.1858681711    3.7860142943   60.3964909618
  13.1137189127    0.0000011816   60.3964909618
  10.9292928114    1.2619669049   64.1640523825
   8.7433834030    5.0479584836   64.1641429771
   6.5575939216    1.2619896207   64.1641429771
   8.7428640437    0.0000158238   60.3964909618
   6.5575473885    3.7859347889   60.3965815565
  -2.1856680428    8.8339387045   64.1640523825
   2.1859587146    8.8340182099   64.1640523825
   0.0000505676    7.5719831573   60.3964909618
   4.3717428999    7.5719263677   60.3964909618
   8.7433237548    7.5719036518   60.3964909618
   6.5575461270    8.8339159886   64.1641429771
  -2.1857425059    3.7858666414   66.6955398371
   4.3714492655    0.0000007605   66.6955398371
   2.1856976762    3.7857871360   66.6955398371
   6.5575080434    3.7859802206   66.6958116212
  -6.5563258093   11.3579065885   66.6957210265
  -4.3716974113    7.5720967364   66.6955398371
   2.1874466354   11.3578952306   66.6955398371
   0.0000243376    7.5719831572   66.6950868637
   4.3717297849    7.5720853785   66.6955398371
  -0.0000274917    5.0482083578   70.4632824472
  -0.0000334186    2.5247856538   74.2322933829
   2.1856589620    1.2618987573   70.4639166100
   4.3713172933    5.0481856420   70.4631918525
   4.3719867886    2.5241609683   74.2306626784
  10.9292272365    1.2619214732   70.4639166100
   8.7436850477    5.0481629261   70.4631918525
   6.5575021168    1.2615580198   70.4631918525
   8.7429577964    2.5241723262   74.2305720838
  -2.1855500078    8.8338251253   70.4632824472
  -4.3710850082   10.0955535141   74.2321121935
  -2.1855428197    6.3101071154   74.2323839776
  -0.0000090805   10.0955648720   74.2323839776
   2.1856111673    8.8338024094   70.4632824472
   2.1854872055    6.3101752629   74.2323839776
   4.3709356973   10.0955080824   74.2323839776
   6.5575657994    8.8341090732   70.4639166100
   6.5575205278    6.3095732933   74.2306626784
  -0.0000733947    5.0501959934   76.7708472235
   2.1879409702    1.2632162758   76.7635090535
   4.3723861653    5.0475155248   76.7630560800
   6.5573971965    1.2628982541   76.7630560800
  10.9271812974    1.2631254124   76.7637808376
   8.7424522386    5.0475041669   76.7630560800
  -2.1839762086    8.8328029126   76.7708472235
   2.1838340862    8.8328369864   76.7707566288
   6.5574871101    8.8315876154   76.7636902429
   4.3716570217   10.0959623991   80.5286244175
  -2.1798374935    3.7783363417   84.3068760117
  -0.0000530910    2.5239792416   80.5286244175
   0.0004498377    0.0000016210   84.2912937248
   2.1797106843    3.7783022679   84.3068760117
   4.3768262198    2.5270004478   80.5385898335
   6.5574490259    3.7859688626   84.3358663129
   8.7379281963    2.5270685953   80.5385898335
  -2.1955639345   11.3564754908   84.3068760117
  -4.3753351979    7.5810467757   84.3068760117
  -4.3716882980   10.0958942516   80.5287150122
  -2.1921790046    6.3063362866   80.5392239964
  -0.0000746574   10.1031746770   80.5391334017
  -0.0000477949    7.5719490834   84.2971823798
   2.1954139932   11.3564982066   84.3068760117
   4.3751921404    7.5810127019   84.3068760117
   2.1920643748    6.3063249287   80.5391334017
   6.5574221668    6.3038602605   80.5385898335
  -2.1761851704    3.7692840811   90.5946911453
  -0.0000137457    2.5228207339   86.8129063582
   4.3528515018    0.0000019821   90.5946911453
   2.1761827538    3.7692840811   90.5946911453
   4.3111791381    2.4889627805   86.8900930350
   8.8038507118    2.4889627805   86.8900930350
  -0.0000215650    7.5719717992   90.5832762143
  -4.3727834000   10.0965416529   86.8129969529
  -2.1921593321    6.3063249287   86.8265861565
   0.0000040325   10.1032201087   86.8265861565
   2.1921627373    6.3063135708   86.8265861565
   4.3727324508   10.0965302950   86.8129969529
   6.5574877227    6.3799128791   86.8900930350
   8.7334153743    7.5886338648   90.5946911453
