Bi162 Te242
1.0
  13.1197575554213941    0.0000000000000000    0.0000000000000000
  -6.5598805065367847   11.3620433330154107    0.0000000000000000
  -0.0000000003204924   -0.0000000004154954   90.6006476356403425
Bi Te
162 242
direct
   0.1111110000018454    0.8888890000010702    0.0223581666661635 Bi3+
   0.1111110000018455    0.8888890000010703    0.3556914999994968 Bi3+
   0.1111110000018455    0.8888890000010703    0.6890248333328300 Bi3+
   0.1111110000018455    0.2222223333344036    0.0223581666661635 Bi3+
   0.1111110000018455    0.2222223333344036    0.3556914999994968 Bi3+
   0.1111110000018455    0.2222223333344036    0.6890248333328300 Bi3+
   0.1111110000018454    0.5555556666677368    0.0223581666661635 Bi3+
   0.1111110000018454    0.5555556666677368    0.3556914999994968 Bi3+
   0.1111110000018454    0.5555556666677368    0.6890248333328300 Bi3+
   0.4444443333351787    0.8888890000010702    0.0223581666661635 Bi3+
   0.4444443333351789    0.8888890000010703    0.3556914999994968 Bi3+
   0.4444443333351787    0.8888890000010703    0.6890248333328300 Bi3+
   0.4444443333351787    0.2222223333344036    0.0223581666661635 Bi3+
   0.4444443333351789    0.2222223333344036    0.3556914999994968 Bi3+
   0.4444443333351789    0.2222223333344036    0.6890248333328300 Bi3+
   0.4444443333351787    0.5555556666677368    0.0223581666661635 Bi3+
   0.4444443333351788    0.5555556666677368    0.3556914999994968 Bi3+
   0.4444443333351787    0.5555556666677368    0.6890248333328300 Bi3+
   0.7777776666685122    0.8888890000010702    0.0223581666661635 Bi3+
   0.7777776666685122    0.8888890000010703    0.3556914999994968 Bi3+
   0.7777776666685121    0.8888890000010703    0.6890248333328300 Bi3+
   0.7777776666685123    0.2222223333344036    0.0223581666661635 Bi3+
   0.7777776666685122    0.2222223333344036    0.3556914999994968 Bi3+
   0.7777776666685122    0.2222223333344036    0.6890248333328300 Bi3+
   0.7777776666685122    0.5555556666677368    0.0223581666661635 Bi3+
   0.7777776666685121    0.5555556666677368    0.3556914999994968 Bi3+
   0.7777776666685121    0.5555556666677368    0.6890248333328300 Bi3+
   0.1111110000046813    0.8888890000034982    0.0887529999999339 Bi3+
   0.1111110000046813    0.8888890000034984    0.4220863333332673 Bi3+
   0.1111110000046814    0.8888890000034982    0.7554196666666004 Bi3+
   0.1111110000046814    0.2222223333368316    0.0887529999999339 Bi3+
   0.1111110000046814    0.2222223333368316    0.4220863333332673 Bi3+
   0.1111110000046814    0.2222223333368316    0.7554196666666004 Bi3+
   0.1111110000046813    0.5555556666701650    0.0887529999999339 Bi3+
   0.1111110000046813    0.5555556666701650    0.4220863333332673 Bi3+
   0.1111110000046813    0.5555556666701648    0.7554196666666004 Bi3+
   0.4444443333380146    0.8888890000034982    0.0887529999999339 Bi3+
   0.4444443333380148    0.8888890000034984    0.4220863333332673 Bi3+
   0.4444443333380146    0.8888890000034982    0.7554196666666004 Bi3+
   0.4444443333380147    0.2222223333368316    0.0887529999999339 Bi3+
   0.4444443333380148    0.2222223333368316    0.4220863333332673 Bi3+
   0.4444443333380148    0.2222223333368316    0.7554196666666004 Bi3+
   0.4444443333380147    0.5555556666701650    0.0887529999999339 Bi3+
   0.4444443333380148    0.5555556666701650    0.4220863333332673 Bi3+
   0.4444443333380146    0.5555556666701648    0.7554196666666004 Bi3+
   0.7777776666713481    0.8888890000034982    0.0887529999999339 Bi3+
   0.7777776666713481    0.8888890000034984    0.4220863333332673 Bi3+
   0.7777776666713482    0.8888890000034982    0.7554196666666004 Bi3+
   0.7777776666713482    0.2222223333368316    0.0887529999999339 Bi3+
   0.7777776666713481    0.2222223333368316    0.4220863333332673 Bi3+
   0.7777776666713481    0.2222223333368316    0.7554196666666004 Bi3+
   0.7777776666713480    0.5555556666701650    0.0887529999999339 Bi3+
   0.7777776666713480    0.5555556666701650    0.4220863333332673 Bi3+
   0.7777776666713481    0.5555556666701648    0.7554196666666004 Bi3+
   0.0000000028754673    0.0000000033053435    0.1334693333333647 Bi3+
   0.0000000028754673    0.0000000033053435    0.4668026666666979 Bi3+
   0.0000000028754673    0.0000000033053435    0.8001360000000313 Bi3+
   0.0000000028754672    0.3333333366386768    0.1334693333333647 Bi3+
   0.0000000028754673    0.3333333366386768    0.4668026666666979 Bi3+
   0.0000000028754672    0.3333333366386767    0.8001360000000313 Bi3+
   0.0000000028754673    0.6666666699720100    0.1334693333333647 Bi3+
   0.0000000028754672    0.6666666699720101    0.4668026666666979 Bi3+
   0.0000000028754673    0.6666666699720100    0.8001360000000313 Bi3+
   0.3333333362088008    0.0000000033053435    0.1334693333333647 Bi3+
   0.3333333362088007    0.0000000033053435    0.4668026666666979 Bi3+
   0.3333333362088007    0.0000000033053435    0.8001360000000313 Bi3+
   0.3333333362088007    0.3333333366386768    0.1334693333333647 Bi3+
   0.3333333362088006    0.3333333366386768    0.4668026666666979 Bi3+
   0.3333333362088006    0.3333333366386767    0.8001360000000313 Bi3+
   0.3333333362088006    0.6666666699720100    0.1334693333333647 Bi3+
   0.3333333362088006    0.6666666699720101    0.4668026666666979 Bi3+
   0.3333333362088006    0.6666666699720100    0.8001360000000313 Bi3+
   0.6666666695421339    0.0000000033053435    0.1334693333333647 Bi3+
   0.6666666695421342    0.0000000033053435    0.4668026666666979 Bi3+
   0.6666666695421340    0.0000000033053435    0.8001360000000313 Bi3+
   0.6666666695421339    0.3333333366386768    0.1334693333333647 Bi3+
   0.6666666695421342    0.3333333366386768    0.4668026666666979 Bi3+
   0.6666666695421340    0.3333333366386767    0.8001360000000313 Bi3+
   0.6666666695421339    0.6666666699720100    0.1334693333333647 Bi3+
   0.6666666695421342    0.6666666699720101    0.4668026666666979 Bi3+
   0.6666666695421339    0.6666666699720100    0.8001360000000313 Bi3+
   0.0000000033029287    0.0000000028765110    0.8665306666661189 Bi3+
   0.0000000033029287    0.0000000028765110    0.1998639999994523 Bi3+
   0.0000000033029287    0.0000000028765110    0.5331973333327856 Bi3+
   0.0000000033029286    0.3333333362098442    0.8665306666661189 Bi3+
   0.0000000033029286    0.3333333362098442    0.1998639999994523 Bi3+
   0.0000000033029286    0.3333333362098442    0.5331973333327856 Bi3+
   0.0000000033029285    0.6666666695431774    0.8665306666661189 Bi3+
   0.0000000033029286    0.6666666695431777    0.1998639999994523 Bi3+
   0.0000000033029285    0.6666666695431774    0.5331973333327856 Bi3+
   0.3333333366362621    0.0000000028765110    0.8665306666661189 Bi3+
   0.3333333366362622    0.0000000028765110    0.1998639999994523 Bi3+
   0.3333333366362621    0.0000000028765110    0.5331973333327856 Bi3+
   0.3333333366362620    0.3333333362098442    0.8665306666661189 Bi3+
   0.3333333366362620    0.3333333362098442    0.1998639999994523 Bi3+
   0.3333333366362619    0.3333333362098442    0.5331973333327856 Bi3+
   0.3333333366362619    0.6666666695431774    0.8665306666661189 Bi3+
   0.3333333366362619    0.6666666695431777    0.1998639999994523 Bi3+
   0.3333333366362619    0.6666666695431774    0.5331973333327856 Bi3+
   0.6666666699695953    0.0000000028765110    0.8665306666661189 Bi3+
   0.6666666699695952    0.0000000028765110    0.1998639999994523 Bi3+
   0.6666666699695951    0.0000000028765110    0.5331973333327856 Bi3+
   0.6666666699695953    0.3333333362098442    0.8665306666661189 Bi3+
   0.6666666699695953    0.3333333362098442    0.1998639999994523 Bi3+
   0.6666666699695952    0.3333333362098442    0.5331973333327856 Bi3+
   0.6666666699695952    0.6666666695431774    0.8665306666661189 Bi3+
   0.6666666699695953    0.6666666695431777    0.1998639999994523 Bi3+
   0.6666666699695951    0.6666666695431774    0.5331973333327856 Bi3+
   0.8888890000017059    0.1111110000023716    0.9112469999995498 Bi3+
   0.8888890000017058    0.1111110000023716    0.2445803333328831 Bi3+
   0.8888890000017058    0.1111110000023716    0.5779136666662165 Bi3+
   0.8888890000017059    0.4444443333357049    0.9112469999995498 Bi3+
   0.8888890000017059    0.4444443333357050    0.2445803333328831 Bi3+
   0.8888890000017057    0.4444443333357048    0.5779136666662165 Bi3+
   0.8888890000017058    0.7777776666690381    0.9112469999995498 Bi3+
   0.8888890000017057    0.7777776666690380    0.2445803333328831 Bi3+
   0.8888890000017056    0.7777776666690380    0.5779136666662165 Bi3+
   0.2222223333350392    0.1111110000023716    0.9112469999995498 Bi3+
   0.2222223333350392    0.1111110000023716    0.2445803333328831 Bi3+
   0.2222223333350392    0.1111110000023716    0.5779136666662165 Bi3+
   0.2222223333350391    0.4444443333357049    0.9112469999995498 Bi3+
   0.2222223333350392    0.4444443333357050    0.2445803333328831 Bi3+
   0.2222223333350392    0.4444443333357048    0.5779136666662165 Bi3+
   0.2222223333350390    0.7777776666690381    0.9112469999995498 Bi3+
   0.2222223333350391    0.7777776666690380    0.2445803333328831 Bi3+
   0.2222223333350391    0.7777776666690380    0.5779136666662165 Bi3+
   0.5555556666683725    0.1111110000023716    0.9112469999995498 Bi3+
   0.5555556666683725    0.1111110000023716    0.2445803333328831 Bi3+
   0.5555556666683724    0.1111110000023716    0.5779136666662165 Bi3+
   0.5555556666683726    0.4444443333357049    0.9112469999995498 Bi3+
   0.5555556666683725    0.4444443333357050    0.2445803333328831 Bi3+
   0.5555556666683723    0.4444443333357048    0.5779136666662165 Bi3+
   0.5555556666683724    0.7777776666690381    0.9112469999995498 Bi3+
   0.5555556666683724    0.7777776666690380    0.2445803333328831 Bi3+
   0.5555556666683723    0.7777776666690380    0.5779136666662165 Bi3+
   0.8888890000001411    0.1111109999959984    0.9776419999998992 Bi3+
   0.8888890000001410    0.1111109999959984    0.3109753333332325 Bi3+
   0.8888890000001411    0.1111109999959984    0.6443086666665658 Bi3+
   0.8888890000001410    0.4444443333293316    0.9776419999998992 Bi3+
   0.8888890000001410    0.4444443333293317    0.3109753333332325 Bi3+
   0.8888890000001410    0.4444443333293316    0.6443086666665658 Bi3+
   0.8888890000001408    0.7777776666626648    0.9776419999998992 Bi3+
   0.8888890000001409    0.7777776666626650    0.3109753333332325 Bi3+
   0.8888890000001409    0.7777776666626650    0.6443086666665658 Bi3+
   0.2222223333334745    0.1111109999959984    0.9776419999998992 Bi3+
   0.2222223333334744    0.1111109999959984    0.3109753333332325 Bi3+
   0.2222223333334744    0.1111109999959984    0.6443086666665658 Bi3+
   0.2222223333334744    0.4444443333293316    0.9776419999998992 Bi3+
   0.2222223333334744    0.4444443333293317    0.3109753333332325 Bi3+
   0.2222223333334744    0.4444443333293316    0.6443086666665658 Bi3+
   0.2222223333334744    0.7777776666626648    0.9776419999998992 Bi3+
   0.2222223333334743    0.7777776666626650    0.3109753333332325 Bi3+
   0.2222223333334743    0.7777776666626650    0.6443086666665658 Bi3+
   0.5555556666668077    0.1111109999959984    0.9776419999998992 Bi3+
   0.5555556666668079    0.1111109999959984    0.3109753333332325 Bi3+
   0.5555556666668078    0.1111109999959984    0.6443086666665658 Bi3+
   0.5555556666668076    0.4444443333293316    0.9776419999998992 Bi3+
   0.5555556666668078    0.4444443333293317    0.3109753333332325 Bi3+
   0.5555556666668077    0.4444443333293316    0.6443086666665658 Bi3+
   0.5555556666668076    0.7777776666626648    0.9776419999998992 Bi3+
   0.5555556666668078    0.7777776666626650    0.3109753333332325 Bi3+
   0.5555556666668076    0.7777776666626650    0.6443086666665658 Bi3+
   0.8888890000050579    0.1111110000037492    0.0415760000000068 Te2-
   0.8888890000050576    0.1111110000037492    0.3749093333333401 Te2-
   0.8888890000050579    0.1111110000037493    0.7082426666666733 Te2-
   0.8888890000050576    0.4444443333370826    0.0415760000000068 Te2-
   0.8888890000050577    0.4444443333370826    0.3749093333333401 Te2-
   0.8888890000050578    0.4444443333370826    0.7082426666666733 Te2-
   0.8888890000050576    0.7777776666704156    0.0415760000000068 Te2-
   0.8888890000050576    0.7777776666704159    0.3749093333333401 Te2-
   0.8888890000050577    0.7777776666704159    0.7082426666666733 Te2-
   0.2222223333383911    0.1111110000037492    0.0415760000000068 Te2-
   0.2222223333383910    0.1111110000037492    0.3749093333333401 Te2-
   0.2222223333383911    0.1111110000037493    0.7082426666666733 Te2-
   0.2222223333383910    0.4444443333370826    0.0415760000000068 Te2-
   0.2222223333383910    0.4444443333370826    0.3749093333333401 Te2-
   0.2222223333383910    0.4444443333370826    0.7082426666666733 Te2-
   0.2222223333383909    0.7777776666704156    0.0415760000000068 Te2-
   0.2222223333383911    0.7777776666704159    0.3749093333333401 Te2-
   0.2222223333383910    0.7777776666704159    0.7082426666666733 Te2-
   0.5555556666717245    0.1111110000037492    0.0415760000000068 Te2-
   0.5555556666717244    0.1111110000037492    0.3749093333333401 Te2-
   0.5555556666717245    0.1111110000037493    0.7082426666666733 Te2-
   0.5555556666717244    0.4444443333370826    0.0415760000000068 Te2-
   0.5555556666717243    0.4444443333370826    0.3749093333333401 Te2-
   0.5555556666717244    0.4444443333370826    0.7082426666666733 Te2-
   0.5555556666717242    0.7777776666704156    0.0415760000000068 Te2-
   0.5555556666717243    0.7777776666704159    0.3749093333333401 Te2-
   0.5555556666717244    0.7777776666704159    0.7082426666666733 Te2-
   0.0000000037496979    0.0000000037493256    0.3333333354536272 Te2-
   0.0000000037496979    0.0000000037493256    0.6666666687869605 Te2-
   0.0000000037496978    0.3333333370826589    0.0000000021202939 Te2-
   0.0000000037496978    0.3333333370826589    0.3333333354536272 Te2-
   0.0000000037496978    0.3333333370826589    0.6666666687869605 Te2-
   0.0000000037496979    0.6666666704159921    0.0000000021202939 Te2-
   0.0000000037496978    0.6666666704159923    0.3333333354536272 Te2-
   0.0000000037496977    0.6666666704159923    0.6666666687869605 Te2-
   0.3333333370830313    0.0000000037493256    0.0000000021202939 Te2-
   0.3333333370830313    0.0000000037493256    0.3333333354536272 Te2-
   0.3333333370830313    0.0000000037493256    0.6666666687869605 Te2-
   0.3333333370830313    0.3333333370826589    0.0000000021202939 Te2-
   0.3333333370830313    0.3333333370826589    0.3333333354536272 Te2-
   0.3333333370830312    0.3333333370826589    0.6666666687869605 Te2-
   0.3333333370830313    0.6666666704159921    0.0000000021202939 Te2-
   0.3333333370830313    0.6666666704159923    0.3333333354536272 Te2-
   0.3333333370830312    0.6666666704159923    0.6666666687869605 Te2-
   0.6666666704163646    0.0000000037493256    0.0000000021202939 Te2-
   0.6666666704163648    0.0000000037493256    0.3333333354536272 Te2-
   0.6666666704163648    0.0000000037493256    0.6666666687869605 Te2-
   0.6666666704163646    0.3333333370826589    0.0000000021202939 Te2-
   0.6666666704163644    0.3333333370826589    0.3333333354536272 Te2-
   0.6666666704163646    0.3333333370826589    0.6666666687869605 Te2-
   0.6666666704163646    0.6666666704159921    0.0000000021202939 Te2-
   0.6666666704163644    0.6666666704159923    0.3333333354536272 Te2-
   0.6666666704163646    0.6666666704159923    0.6666666687869605 Te2-
   0.0000000029724556    0.0000000034262228    0.0695349999995116 Te2-
   0.0000000029724556    0.0000000034262228    0.4028683333328449 Te2-
   0.0000000029724556    0.0000000034262228    0.7362016666661779 Te2-
   0.0000000029724556    0.3333333367595560    0.0695349999995116 Te2-
   0.0000000029724556    0.3333333367595560    0.4028683333328449 Te2-
   0.0000000029724556    0.3333333367595561    0.7362016666661779 Te2-
   0.0000000029724555    0.6666666700928894    0.0695349999995116 Te2-
   0.0000000029724555    0.6666666700928893    0.4028683333328449 Te2-
   0.0000000029724554    0.6666666700928892    0.7362016666661779 Te2-
   0.3333333363057890    0.0000000034262228    0.0695349999995116 Te2-
   0.3333333363057890    0.0000000034262228    0.4028683333328449 Te2-
   0.3333333363057889    0.0000000034262228    0.7362016666661779 Te2-
   0.3333333363057890    0.3333333367595560    0.0695349999995116 Te2-
   0.3333333363057890    0.3333333367595560    0.4028683333328449 Te2-
   0.3333333363057889    0.3333333367595561    0.7362016666661779 Te2-
   0.3333333363057889    0.6666666700928894    0.0695349999995116 Te2-
   0.3333333363057889    0.6666666700928893    0.4028683333328449 Te2-
   0.3333333363057889    0.6666666700928892    0.7362016666661779 Te2-
   0.6666666696391224    0.0000000034262228    0.0695349999995116 Te2-
   0.6666666696391224    0.0000000034262228    0.4028683333328449 Te2-
   0.6666666696391222    0.0000000034262228    0.7362016666661779 Te2-
   0.6666666696391225    0.3333333367595560    0.0695349999995116 Te2-
   0.6666666696391222    0.3333333367595560    0.4028683333328449 Te2-
   0.6666666696391222    0.3333333367595561    0.7362016666661779 Te2-
   0.6666666696391222    0.6666666700928894    0.0695349999995116 Te2-
   0.6666666696391222    0.6666666700928893    0.4028683333328449 Te2-
   0.6666666696391222    0.6666666700928892    0.7362016666661779 Te2-
   0.1111109999953895    0.8888889999970349    0.1526873333337870 Te2-
   0.1111109999953893    0.8888889999970349    0.4860206666671203 Te2-
   0.1111109999953895    0.8888889999970350    0.8193540000004537 Te2-
   0.1111109999953895    0.2222223333303684    0.1526873333337870 Te2-
   0.1111109999953895    0.2222223333303683    0.4860206666671203 Te2-
   0.1111109999953895    0.2222223333303683    0.8193540000004537 Te2-
   0.1111109999953895    0.5555556666637015    0.1526873333337870 Te2-
   0.1111109999953895    0.5555556666637017    0.4860206666671203 Te2-
   0.1111109999953894    0.5555556666637015    0.8193540000004537 Te2-
   0.4444443333287229    0.8888889999970349    0.1526873333337870 Te2-
   0.4444443333287229    0.8888889999970349    0.4860206666671203 Te2-
   0.4444443333287228    0.8888889999970350    0.8193540000004537 Te2-
   0.4444443333287229    0.2222223333303684    0.1526873333337870 Te2-
   0.4444443333287229    0.2222223333303683    0.4860206666671203 Te2-
   0.4444443333287228    0.2222223333303683    0.8193540000004537 Te2-
   0.4444443333287228    0.5555556666637015    0.1526873333337870 Te2-
   0.4444443333287230    0.5555556666637017    0.4860206666671203 Te2-
   0.4444443333287228    0.5555556666637015    0.8193540000004537 Te2-
   0.7777776666620561    0.8888889999970349    0.1526873333337870 Te2-
   0.7777776666620559    0.8888889999970349    0.4860206666671203 Te2-
   0.7777776666620561    0.8888889999970350    0.8193540000004537 Te2-
   0.7777776666620561    0.2222223333303684    0.1526873333337870 Te2-
   0.7777776666620561    0.2222223333303683    0.4860206666671203 Te2-
   0.7777776666620561    0.2222223333303683    0.8193540000004537 Te2-
   0.7777776666620561    0.5555556666637015    0.1526873333337870 Te2-
   0.7777776666620561    0.5555556666637017    0.4860206666671203 Te2-
   0.7777776666620562    0.5555556666637015    0.8193540000004537 Te2-
   0.8888889999960050    0.1111109999974908    0.1111109999995184 Te2-
   0.8888889999960050    0.1111109999974908    0.4444443333328517 Te2-
   0.8888889999960049    0.1111109999974908    0.7777776666661849 Te2-
   0.8888889999960050    0.4444443333308242    0.1111109999995184 Te2-
   0.8888889999960049    0.4444443333308241    0.4444443333328517 Te2-
   0.8888889999960049    0.4444443333308242    0.7777776666661849 Te2-
   0.8888889999960050    0.7777776666641574    0.1111109999995184 Te2-
   0.8888889999960048    0.7777776666641574    0.4444443333328517 Te2-
   0.8888889999960048    0.7777776666641574    0.7777776666661849 Te2-
   0.2222223333293384    0.1111109999974908    0.1111109999995184 Te2-
   0.2222223333293384    0.1111109999974908    0.4444443333328517 Te2-
   0.2222223333293384    0.1111109999974908    0.7777776666661849 Te2-
   0.2222223333293383    0.4444443333308242    0.1111109999995184 Te2-
   0.2222223333293383    0.4444443333308241    0.4444443333328517 Te2-
   0.2222223333293383    0.4444443333308242    0.7777776666661849 Te2-
   0.2222223333293383    0.7777776666641574    0.1111109999995184 Te2-
   0.2222223333293383    0.7777776666641574    0.4444443333328517 Te2-
   0.2222223333293382    0.7777776666641574    0.7777776666661849 Te2-
   0.5555556666626718    0.1111109999974908    0.1111109999995184 Te2-
   0.5555556666626718    0.1111109999974908    0.4444443333328517 Te2-
   0.5555556666626715    0.1111109999974908    0.7777776666661849 Te2-
   0.5555556666626718    0.4444443333308242    0.1111109999995184 Te2-
   0.5555556666626716    0.4444443333308241    0.4444443333328517 Te2-
   0.5555556666626715    0.4444443333308242    0.7777776666661849 Te2-
   0.5555556666626716    0.7777776666641574    0.1111109999995184 Te2-
   0.5555556666626715    0.7777776666641574    0.4444443333328517 Te2-
   0.5555556666626715    0.7777776666641574    0.7777776666661849 Te2-
   0.8888889999989751    0.1111110000000336    0.8473126666668005 Te2-
   0.8888889999989751    0.1111110000000336    0.1806460000001337 Te2-
   0.8888889999989751    0.1111110000000336    0.5139793333334670 Te2-
   0.8888889999989750    0.4444443333333669    0.8473126666668005 Te2-
   0.8888889999989751    0.4444443333333670    0.1806460000001337 Te2-
   0.8888889999989750    0.4444443333333669    0.5139793333334670 Te2-
   0.8888889999989750    0.7777776666667002    0.8473126666668005 Te2-
   0.8888889999989749    0.7777776666667000    0.1806460000001337 Te2-
   0.8888889999989749    0.7777776666667001    0.5139793333334670 Te2-
   0.2222223333323084    0.1111110000000336    0.8473126666668005 Te2-
   0.2222223333323084    0.1111110000000336    0.1806460000001337 Te2-
   0.2222223333323084    0.1111110000000336    0.5139793333334670 Te2-
   0.2222223333323083    0.4444443333333669    0.8473126666668005 Te2-
   0.2222223333323084    0.4444443333333670    0.1806460000001337 Te2-
   0.2222223333323083    0.4444443333333669    0.5139793333334670 Te2-
   0.2222223333323083    0.7777776666667002    0.8473126666668005 Te2-
   0.2222223333323083    0.7777776666667000    0.1806460000001337 Te2-
   0.2222223333323083    0.7777776666667001    0.5139793333334670 Te2-
   0.5555556666656417    0.1111110000000336    0.8473126666668005 Te2-
   0.5555556666656417    0.1111110000000336    0.1806460000001337 Te2-
   0.5555556666656417    0.1111110000000336    0.5139793333334670 Te2-
   0.5555556666656417    0.4444443333333669    0.8473126666668005 Te2-
   0.5555556666656417    0.4444443333333670    0.1806460000001337 Te2-
   0.5555556666656417    0.4444443333333669    0.5139793333334670 Te2-
   0.5555556666656417    0.7777776666667002    0.8473126666668005 Te2-
   0.5555556666656415    0.7777776666667000    0.1806460000001337 Te2-
   0.5555556666656418    0.7777776666667001    0.5139793333334670 Te2-
   0.0000000034226651    0.0000000029756626    0.9304649999999721 Te2-
   0.0000000034226651    0.0000000029756626    0.2637983333333054 Te2-
   0.0000000034226651    0.0000000029756626    0.5971316666666387 Te2-
   0.0000000034226650    0.3333333363089958    0.9304649999999721 Te2-
   0.0000000034226650    0.3333333363089959    0.2637983333333054 Te2-
   0.0000000034226651    0.3333333363089959    0.5971316666666387 Te2-
   0.0000000034226649    0.6666666696423290    0.9304649999999721 Te2-
   0.0000000034226649    0.6666666696423290    0.2637983333333054 Te2-
   0.0000000034226649    0.6666666696423290    0.5971316666666387 Te2-
   0.3333333367559984    0.0000000029756626    0.9304649999999721 Te2-
   0.3333333367559983    0.0000000029756626    0.2637983333333054 Te2-
   0.3333333367559984    0.0000000029756626    0.5971316666666387 Te2-
   0.3333333367559984    0.3333333363089958    0.9304649999999721 Te2-
   0.3333333367559983    0.3333333363089959    0.2637983333333054 Te2-
   0.3333333367559984    0.3333333363089959    0.5971316666666387 Te2-
   0.3333333367559984    0.6666666696423290    0.9304649999999721 Te2-
   0.3333333367559982    0.6666666696423290    0.2637983333333054 Te2-
   0.3333333367559983    0.6666666696423290    0.5971316666666387 Te2-
   0.6666666700893316    0.0000000029756626    0.9304649999999721 Te2-
   0.6666666700893318    0.0000000029756626    0.2637983333333054 Te2-
   0.6666666700893317    0.0000000029756626    0.5971316666666387 Te2-
   0.6666666700893317    0.3333333363089958    0.9304649999999721 Te2-
   0.6666666700893318    0.3333333363089959    0.2637983333333054 Te2-
   0.6666666700893317    0.3333333363089959    0.5971316666666387 Te2-
   0.6666666700893317    0.6666666696423290    0.9304649999999721 Te2-
   0.6666666700893318    0.6666666696423290    0.2637983333333054 Te2-
   0.6666666700893317    0.6666666696423290    0.5971316666666387 Te2-
   0.1111109999983595    0.8888889999995778    0.8888889999999653 Te2-
   0.1111109999983595    0.8888889999995779    0.2222223333332986 Te2-
   0.1111109999983596    0.8888889999995778    0.5555556666666318 Te2-
   0.1111109999983595    0.2222223333329111    0.8888889999999653 Te2-
   0.1111109999983595    0.2222223333329112    0.2222223333332986 Te2-
   0.1111109999983595    0.2222223333329112    0.5555556666666318 Te2-
   0.1111109999983594    0.5555556666662445    0.8888889999999653 Te2-
   0.1111109999983594    0.5555556666662445    0.2222223333332986 Te2-
   0.1111109999983594    0.5555556666662445    0.5555556666666318 Te2-
   0.4444443333316929    0.8888889999995778    0.8888889999999653 Te2-
   0.4444443333316929    0.8888889999995779    0.2222223333332986 Te2-
   0.4444443333316929    0.8888889999995778    0.5555556666666318 Te2-
   0.4444443333316929    0.2222223333329111    0.8888889999999653 Te2-
   0.4444443333316929    0.2222223333329112    0.2222223333332986 Te2-
   0.4444443333316929    0.2222223333329112    0.5555556666666318 Te2-
   0.4444443333316929    0.5555556666662445    0.8888889999999653 Te2-
   0.4444443333316929    0.5555556666662445    0.2222223333332986 Te2-
   0.4444443333316929    0.5555556666662445    0.5555556666666318 Te2-
   0.7777776666650262    0.8888889999995778    0.8888889999999653 Te2-
   0.7777776666650263    0.8888889999995779    0.2222223333332986 Te2-
   0.7777776666650261    0.8888889999995778    0.5555556666666318 Te2-
   0.7777776666650263    0.2222223333329111    0.8888889999999653 Te2-
   0.7777776666650262    0.2222223333329112    0.2222223333332986 Te2-
   0.7777776666650262    0.2222223333329112    0.5555556666666318 Te2-
   0.7777776666650260    0.5555556666662445    0.8888889999999653 Te2-
   0.7777776666650263    0.5555556666662445    0.2222223333332986 Te2-
   0.7777776666650263    0.5555556666662445    0.5555556666666318 Te2-
   0.1111110000013296    0.8888890000021206    0.9584239999994768 Te2-
   0.1111110000013295    0.8888890000021206    0.2917573333328102 Te2-
   0.1111110000013295    0.8888890000021205    0.6250906666661433 Te2-
   0.1111110000013296    0.2222223333354540    0.9584239999994768 Te2-
   0.1111110000013295    0.2222223333354540    0.2917573333328102 Te2-
   0.1111110000013295    0.2222223333354540    0.6250906666661433 Te2-
   0.1111110000013295    0.5555556666687873    0.9584239999994768 Te2-
   0.1111110000013295    0.5555556666687873    0.2917573333328102 Te2-
   0.1111110000013295    0.5555556666687871    0.6250906666661433 Te2-
   0.4444443333346630    0.8888890000021206    0.9584239999994768 Te2-
   0.4444443333346628    0.8888890000021206    0.2917573333328102 Te2-
   0.4444443333346629    0.8888890000021205    0.6250906666661433 Te2-
   0.4444443333346629    0.2222223333354540    0.9584239999994768 Te2-
   0.4444443333346629    0.2222223333354540    0.2917573333328102 Te2-
   0.4444443333346629    0.2222223333354540    0.6250906666661433 Te2-
   0.4444443333346629    0.5555556666687873    0.9584239999994768 Te2-
   0.4444443333346628    0.5555556666687873    0.2917573333328102 Te2-
   0.4444443333346628    0.5555556666687871    0.6250906666661433 Te2-
   0.7777776666679963    0.8888890000021206    0.9584239999994768 Te2-
   0.7777776666679963    0.8888890000021206    0.2917573333328102 Te2-
   0.7777776666679961    0.8888890000021205    0.6250906666661433 Te2-
   0.7777776666679965    0.2222223333354540    0.9584239999994768 Te2-
   0.7777776666679963    0.2222223333354540    0.2917573333328102 Te2-
   0.7777776666679961    0.2222223333354540    0.6250906666661433 Te2-
   0.7777776666679963    0.5555556666687873    0.9584239999994768 Te2-
   0.7777776666679961    0.5555556666687873    0.2917573333328102 Te2-
   0.7777776666679962    0.5555556666687871    0.6250906666661433 Te2-
