Bi6 Te9 
1.0
4.3732525185000002e+00 0.0000000000000000e+00 0.0000000000000000e+00 
-2.1866268354999998e+00 3.7873477777000000e+00 0.0000000000000000e+00 
-1.0000000000000000e-10 -1.0000000000000000e-10 3.0048835397100000e+01 
Bi Te 
6 9 
Cartesian
  -0.0000025708    2.5248997809    2.0181488976
  -0.0000025708    2.5248997809    7.9981285665
   4.3732525113    0.0000000124   12.0344383812
   0.0000000975    0.0000000122   18.0143970159
   2.1866282537    1.2624479967   22.0507068306
   2.1866282537    1.2624479967   28.0306955142
   2.1866282538    1.2624479968    3.7556837409
   0.0000000071    0.0000000123    0.0000010143
   0.0000002040    0.0000000122    6.2605847085
   2.1866282538    1.2624479968   10.0162684494
  -0.0000025708    2.5248997809   13.7719822392
   2.1866282537    1.2624479967   16.2768531579
   4.3732525112    0.0000000124   23.7882506886
  -0.0000025709    2.5248997808   20.0325669477
  -0.0000025709    2.5248997808   26.2931516562
