Bi6 Te9 
1.0
4.3732525185000002e+00 0.0000000000000000e+00 0.0000000000000000e+00 
-2.1866268354999998e+00 3.7873477776999995e+00 0.0000000000000000e+00 
-1.0000000000000000e-10 3.0200215860000001e-01 3.0198705830000002e+01 
Bi Te 
6 9 
Cartesian
  -0.0000025692    2.5346543934    2.0252127892
  -0.0000025724    2.6158127257    8.0410396001
   2.1866256846    3.8977697060   12.0914410195
   0.0000001077    0.1915805712   18.1072648105
   2.1866282553    1.4735375126   22.1576964286
   2.1866282521    1.5546955127   28.1734900209
   2.1866260706    1.2775506633    3.7662013989
   0.0000000071    0.0000000226    0.0000010194
   0.0000002152    0.0855675732    6.3000238115
   2.1866282538    1.3631152823   10.0662252104
  -0.0000025674    2.6406662476   13.8324568080
   2.1866282503    1.4486839907   16.3662792207
   2.1866256864    4.0037815299   23.8986820185
  -0.0000025709    2.7262346540   20.1324806196
  -0.0000003877    2.8117992730   26.4325044311
