Bi6 Te9 
1.0
4.5006998838000003e+00 0.0000000000000000e+00 0.0000000000000000e+00 
-2.2503505349999999e+00 3.8977204337000000e+00 0.0000000000000000e+00 
-1.0000000000000000e-10 -1.0000000000000000e-10 3.1080324660199999e+01 
Bi Te 
6 9 
Cartesian
  -0.0000026458    2.5984815884    2.0455080551
  -0.0000026458    2.5984815883    8.3146084531
   4.5006997689    0.0000001990   12.4056183471
  -2.2503501361    3.8977204336   18.6747063131
   2.2503519945    1.2992388453   22.7657162071
   2.2503519945    1.2992388452   29.0348041730
   2.2503519945    1.2992388453    3.7513951865
   0.0000000060    0.0000000102    0.0000010458
  -0.0000000323    0.0000001839    6.6087337538
   2.2503519945    1.2992388453   10.3600978600
  -0.0000026458    2.5984815883   14.1114930464
   2.2503519945    1.2992388453   16.9688316138
   2.2503493487    3.8977204336   24.4715909064
  -0.0000026458    2.5984815883   20.7202268002
  -0.0000026458    2.5984815883   27.3289294737
