Bi6 Te9 
1.0
4.5006998838021772e+00 0.0000000000000000e+00 0.0000000000000000e+00
-2.2503505349705368e+00 3.8977204336772742e+00 0.0000000000000000e+00
-1.0994410391442147e-10 -1.4253464952581696e-10 3.1080324660239608e+01
Bi Te 
6 9 
Cartesian
-2.6457194530620292e-06 2.5984815883612824e+00 2.0846972363763272e+00
-2.6457194530620292e-06 2.5984815883612824e+00 8.2754161637045769e+00
1.6466279465144106e-08 3.8592842496431495e-08 1.2444810636560145e+01
2.5111076184344760e-08 3.3550044410231113e-08 1.8635514023631320e+01
2.2503519944877639e+00 1.2992388452420951e+00 2.2804908496486892e+01
2.2503519944877639e+00 1.2992388451391808e+00 2.8995642963969299e+01
2.2503519945906780e+00 1.2992388453450094e+00 3.8765867342230012e+00
2.5316904677659058e-08 4.3841469075946174e-08 1.9769826782838641e-07
1.6980850698429858e-08 4.0033641949631601e-08 6.4835111257037434e+00
-2.6458223673086860e-06 2.5984815882583683e+00 1.4236715674560980e+01
2.2503519944877639e+00 1.2992388452420951e+00 1.0360097859926745e+01
2.2503519944877639e+00 1.2992388452420951e+00 1.6843608985733404e+01
2.6037304404259118e-08 3.4682101123459765e-08 2.4596813534487723e+01
-2.6458223673086860e-06 2.5984815882583683e+00 2.0720226800264722e+01
-2.6458223673086860e-06 2.5984815882583683e+00 2.7203737925968465e+01
