Bi6 Te9 
1.0
4.4590243435000003e+00 0.0000000000000000e+00 0.0000000000000000e+00 
-2.2295127592999999e+00 3.8616283570999999e+00 0.0000000000000000e+00 
-1.0000000000000000e-10 -1.0000000000000000e-10 3.0792527349699998e+01 
Bi Te 
6 9 
Cartesian
  -0.0000026212    2.5744201919    2.0419325491
  -0.0000026212    2.5744201919    8.2222514454
   4.4590243115    0.0000000553   12.3061103852
  -2.2295125576    3.8616283570   18.4864169645
   2.2295142053    1.2872081651   22.5702759043
   2.2295142053    1.2872081651   28.7505824836
   2.2295142054    1.2872081651    3.7623849542
   0.0000000070    0.0000000121    0.0000010380
   0.0000001701    0.0000000506    6.5018113574
   2.2295142054    1.2872081651   10.2641655191
  -0.0000026213    2.5744201919   14.0265504733
   2.2295142054    1.2872081651   16.7659768764
   2.2295115841    3.8616283570   24.2907159923
  -0.0000026213    2.5744201919   20.5283618306
  -0.0000026213    2.5744201919   27.0301423955
