Bi6 Te9 
1.0
4.4590243435261350e+00 0.0000000000000000e+00 0.0000000000000000e+00
-2.2295127593408162e+00 3.8616283570864565e+00 0.0000000000000000e+00
-1.0892604449053292e-10 -1.4121480846100314e-10 3.0792527349685312e+01
Bi Te 
6 9 
Cartesian
-2.6212206438830336e-06 2.5744201919366843e+00 2.0653933756699874e+00
-2.6212206438830336e-06 2.5744201919366843e+00 8.1987875395937575e+00
1.6313805158755462e-08 3.8235480840833108e-08 1.2329574291035694e+01
2.4878552867102076e-08 3.3239378010964251e-08 1.8462953058601922e+01
2.2295142053432189e+00 1.2872081650765597e+00 2.2593739810043861e+01
2.2295142053432189e+00 1.2872081649745986e+00 2.8727149370223209e+01
2.2295142054451804e+00 1.2872081651785210e+00 3.8406903512721793e+00
2.5082475431586519e-08 4.3435506235186414e-08 1.9586762318730776e-07
1.6823611569966568e-08 3.9662938792224214e-08 6.4234751677359858e+00
-2.6213226051652756e-06 2.5744201918347236e+00 1.4104886662893465e+01
2.2295142053432189e+00 1.2872081650765597e+00 1.0264165519008165e+01
2.2295142053432189e+00 1.2872081650765597e+00 1.6687640686846112e+01
2.5796204407282075e-08 3.4360952115628683e-08 2.4369052181901630e+01
-2.6213226051652756e-06 2.5744201918347236e+00 2.0528361830629450e+01
-2.6213226051652756e-06 2.5744201918347236e+00 2.6951836998365437e+01
