Bi6 Te9 
1.0
4.4730025677000000e+00 0.0000000000000000e+00 0.0000000000000000e+00 
-2.2365018732999999e+00 3.8737338543000002e+00 0.0000000000000000e+00 
-1.0000000000000000e-10 -1.0000000000000000e-10 3.0889056279999998e+01 
Bi Te 
6 9 
Cartesian
  -0.0000026295    2.5824905274    2.0438300091
  -0.0000026295    2.5824905274    8.2525364992
   4.4730025602    0.0000000129   12.3401779839
   0.0000001483    0.0000000124   18.5488782961
   2.2365033238    1.2912433268   22.6365197808
   2.2365033238    1.2912433268   28.8452200931
   2.2365033239    1.2912433268    3.7599703757
   0.0000000073    0.0000000127    0.0000010427
   0.0000002372    0.0000000125    6.5364023104
   2.2365033238    1.2912433268   10.2963417970
  -0.0000026295    2.5824905274   14.0563121727
   2.2365033238    1.2912433268   16.8327441073
   4.4730025602    0.0000000127   24.3526539696
  -0.0000026295    2.5824905274   20.5927144830
  -0.0000026296    2.5824905274   27.1290859043
