Bi6 Te9 
1.0
4.4730025676971898e+00 0.0000000000000000e+00 0.0000000000000000e+00
-2.2365018732682924e+00 3.8737338543168147e+00 0.0000000000000000e+00
-1.0926750767858784e-10 -1.4165749100697451e-10 3.0889056279990921e+01
Bi Te 
6 9 
Cartesian
-2.6294376902454717e-06 2.5824905274587651e+00 2.0718680054056251e+00
-2.6294376902454717e-06 2.5824905274587651e+00 8.2244892360479795e+00
1.6364945948314745e-08 3.8355342066362680e-08 1.2368225246961511e+01
2.4956542571179985e-08 3.3343577369691293e-08 1.8520831032981562e+01
2.2365033238036474e+00 1.2912433267846082e+00 2.2664567043895097e+01
2.2365033238036474e+00 1.2912433266823273e+00 2.8817203719057471e+01
2.2365033239059282e+00 1.2912433268868890e+00 3.8527302116913389e+00
2.5161104395533919e-08 4.3571668587388002e-08 1.9648163229195390e-07
1.6876350509199578e-08 3.9787274836840221e-08 6.4436115852422455e+00
-2.6295399711576483e-06 2.5824905273564842e+00 1.4149102897767243e+01
2.2365033238036474e+00 1.2912433267846082e+00 1.0296341796933584e+01
2.2365033238036474e+00 1.2912433267846082e+00 1.6739953382278113e+01
2.5877070780772693e-08 3.4468667403637926e-08 2.4445444694700829e+01
-2.6295399711576483e-06 2.5824905273564842e+00 2.0592714483009487e+01
-2.6295399711576483e-06 2.5824905273564842e+00 2.7036326068251736e+01
