Bi6 Te9 
1.0
4.2223288828000003e+00 0.0000000000000000e+00 0.0000000000000000e+00 
-2.1111649978000000e+00 3.6566440752000000e+00 0.0000000000000000e+00 
-1.0000000000000000e-10 -1.0000000000000000e-10 2.9157987843499999e+01 
Bi Te 
6 9 
Cartesian
  -0.0000024821    2.4377639357    1.9761213943
  -0.0000024821    2.4377639357    7.7431952517
   4.2223288759    0.0000000119   11.6954438720
   0.0000000399    0.0000000118   17.4625439715
   2.1111663670    1.2188801394   21.4147925918
   2.1111663670    1.2188801394   27.1818635334
   2.1111663671    1.2188801395    3.7311435984
   0.0000000069    0.0000000119    0.0000009843
   0.0000001386    0.0000000118    5.9881759634
   2.1111663671    1.2188801395    9.7193195618
  -0.0000024821    2.4377639356   13.4504631603
   2.1111663670    1.2188801395   15.7075246832
   4.2223288758    0.0000000119   23.1698118801
  -0.0000024822    2.4377639356   19.4386682817
  -0.0000024822    2.4377639356   25.4268442451
