Bi6 Te9 
1.0
4.2223288827862877e+00 0.0000000000000000e+00 0.0000000000000000e+00
-2.1111649977808891e+00 3.6566440751518492e+00 0.0000000000000000e+00
-1.0314399480859117e-10 -1.3371879552703150e-10 2.9157987843535295e+01
Bi Te 
6 9 
Cartesian
-2.4820801099441530e-06 2.4377639356520300e+00 1.9557574555671953e+00
-2.4820801099441530e-06 2.4377639356520300e+00 7.7635766852260844e+00
1.5447830153690078e-08 3.6205851922711115e-08 1.1675091596457024e+01
2.3557940984377367e-08 3.1474953938143527e-08 1.7482896247033107e+01
2.1111663670260956e+00 1.2188801394304931e+00 2.1394411158264049e+01
2.1111663670260956e+00 1.2188801393339441e+00 2.7202244966909195e+01
2.1111663671226446e+00 1.2188801395270419e+00 3.6368175077490665e+00
2.3751038861298488e-08 4.1129847784199824e-08 1.8547051078274148e-07
1.5930574845992889e-08 3.7557537061158994e-08 6.0825020540579562e+00
-2.4821766588826134e-06 2.4377639355554814e+00 1.3356166227625151e+01
2.1111663670260956e+00 1.2188801394304931e+00 9.7193195618070227e+00
2.1111663670260956e+00 1.2188801394304931e+00 1.5801821615961529e+01
2.4426881430522435e-08 3.2536992261209721e-08 2.3075485789432175e+01
-2.4821766588826134e-06 2.4377639355554814e+00 1.9438668281683107e+01
-2.4821766588826134e-06 2.4377639355554814e+00 2.5521170335741065e+01
